%chk=C:\Users\richardliu\Documents\cat fragments\aryl.chk
# hf/3-21g geom=connectivity

@left_connect@10
@right_connect@13

0 1
 C                 -0.00187388    1.80340706    1.04396511
 C                 -0.69846950    2.40760228   -0.00301822
 C                 -0.00031181    3.01075054   -1.04896744
 C                  1.39511455    3.01091726   -1.04763810
 C                  2.09147546    2.40726258   -0.00063307
 C                  1.39295473    1.80311087    1.04506258
 H                 -0.55250065    1.32754167    1.86828613
 H                 -0.54930678    3.48645443   -1.87456228
 H                  3.19123563    2.40723452    0.00070711
 N                  2.12712955    1.16677449    2.14822319
 H                  3.11041093    1.25795650    1.99060476
 C                 -2.23846868    2.40674907   -0.00436254
 C                  2.16569664    3.67705501   -2.20265488
 O                  1.54129530    4.22226891   -3.14945756
 F                 -2.68978155    3.02196958    1.10933419
 F                 -2.68774201    1.13393452   -0.02878762
 F                 -2.68788117    3.06359520   -1.09481271

 1 2 1.5 6 1.5 7 1.0
 2 3 1.5 12 1.0
 3 4 1.5 8 1.0
 4 5 1.5 13 1.0
 5 6 1.5 9 1.0
 6 10 1.0
 7
 8
 9
 10 11 1.0
 11
 12 15 1.0 16 1.0 17 1.0
 13 14 2.0
 14
 15
 16
 17

