%nprocshared=12
%mem=2000MB
#p g2 geom=connectivity

@left_connect@3
@right_connect@2
@urea_carbon@1
@fragment_type@thiourea

0 1
 C                  0.00000000    0.00000000   -1.10961500
 H                  0.00000000    1.00880600   -1.46628200
 H                 -0.87365100   -0.50440300   -1.46628200
 H                  0.87365100   -0.50440300   -1.46628200
 Cl                 0.00000000    0.00000000    0.65038500

 1 2 1.0 3 1.0 4 1.0 5 1.0
 2
 3
 4
 5

