%chk=C:\Users\richardliu\Documents\iodine files\test.chk
# hf/3-21g geom=connectivity

@left_connect@2
@right_connect@3
@urea_carbon@1
@fragment_type@urea
@rotatable_bond@2@1@3
@chiral_atom@2

0 1
 C                 -2.29322805    1.23342445   -0.01614594
 O                 -1.03482805    1.23342445   -0.01614594
 O                 -3.55162805    1.23342445   -0.01614594

 1 2 2.0 3 2.0
 2
 3

