%nprocshared=4
%mem=2000MB
#p opt b3lyp 6-31G(d) scrf=(solvent=n,n-dimethylformamide) freq

PhF

0 1
 C                  0.34526854    0.78644496    0.00000000
 C                  1.74042854    0.78644496    0.00000000
 C                  2.43796654    1.99419596    0.00000000
 C                  1.74031254    3.20270496   -0.00119900
 C                  0.34548754    3.20262696   -0.00167800
 C                 -0.35211346    1.99442096   -0.00068200
 H                  2.28993654   -0.16606804    0.00131500
 H                  3.53764654    1.99427596    0.00063400
 H                  2.29051254    4.15484796   -0.00125800
 H                 -0.20463446    4.15490796   -0.00263100
 H                 -1.45171746    1.99460396   -0.00086200
 F                 -0.32967480   -0.38272191    0.00055247

