%chk=C:\Users\richardliu\Documents\urea.chk
# hf/3-21g geom=connectivity

@left_connect@1
@right_connect@1
@urea_carbon@1
@fragment_type@urea

0 1
 C                  0.11383249    1.55761658   -0.62570856
 O                  0.74087292    2.64866693   -0.62570856

 1 2 2.0
 2

