%chk=alkane.chk
# hf/3-21g geom=connectivity

Title Card Required

0 1
 C                 -6.28329279    1.73123484    0.00000000
 H                 -5.92663836    0.72242484    0.00000000
 H                 -5.92661995    2.23563303   -0.87365150
 H                 -7.35329279    1.73124803    0.00000000
 C                 -5.76995057    2.45719111    1.25740497
 H                 -6.12662470    1.95279347    2.13105626
 C                 -4.22995057    2.45716975    1.25740586
 H                 -3.87327672    2.96139903    0.38365728
 C                 -3.71663711    1.00523682    1.25768625
 H                 -4.37351185    0.39467762    1.84132401
 H                 -3.68629429    0.63755128    0.25330253
 C                 -3.71660835    3.18336806    2.51467106
 H                 -2.64712492    3.21224291    2.49819586
 H                 -4.10015750    4.18212463    2.53126486
 H                 -4.04586995    2.66030275    3.38810650
 C                 -6.28326452    3.90912389    1.25740389
 H                 -6.24197201    4.30202312    2.25180075
 H                 -5.67031284    4.50412666    0.61307327
 H                 -7.29416320    3.93003140    0.90733713
 C                 -2.30143857    0.96129778    1.86339447
 H                 -2.36536886    1.06104081    2.92681548
 H                 -1.83808123    0.02806982    1.61990827
 C                 -1.46111692    2.11695397    1.28900932
 H                 -1.34434359    2.87708727    2.03295915
 H                 -0.49856085    1.74908644    1.00080923
 H                 -1.95658673    2.52764378    0.43417394

 1 2 1.0 3 1.0 4 1.0 5 1.0
 2
 3
 4
 5 6 1.0 7 1.0 16 1.0
 6
 7 8 1.0 9 1.0 12 1.0
 8
 9 10 1.0 11 1.0 20 1.0
 10
 11
 12 13 1.0 14 1.0 15 1.0
 13
 14
 15
 16 17 1.0 18 1.0 19 1.0
 17
 18
 19
 20 21 1.0 22 1.0 23 1.0
 21
 22
 23 24 1.0 25 1.0 26 1.0
 24
 25
 26

