%mem=1GB
%nprocshared=12
#p geom=connect #p opt b3lyp m06-2x geom=connect scrf=(solvent=benzene) freq

00018

0 1
C   -0.260942  -2.017399   7.997668
O    0.046897  -2.982296   7.295962
N    0.617840  -1.301288   8.685165
H    0.294335  -0.500504   9.203871
C   -3.829437  -2.328078   8.271679
C   -4.957469  -2.903537   7.651196
C   -4.925156  -3.188167   6.267944
C   -3.755667  -2.931717   5.515651
C   -2.633747  -2.363807   6.150094
C   -2.654605  -2.092093   7.533894
H   -3.857230  -2.139838   9.335142
H   -5.779411  -3.657655   5.801664
H   -1.734174  -2.186872   5.575272
N   -1.512338  -1.606606   8.205241
H   -1.672224  -0.936518   8.941076
C   -6.146503  -3.288152   8.510189
C   -3.623532  -3.338070   4.100410
O   -2.811081  -2.835681   3.321787
F   -5.718822  -4.018039   9.539251
F   -6.728323  -2.187623   8.980078
F   -7.049484  -3.994315   7.832200
O   -4.397261  -4.392385   3.800101
C   -4.125463  -5.149737   2.629996
H   -5.015800  -5.713267   2.350446
H   -3.906762  -4.484314   1.793151
C   -2.942925  -6.108402   2.879398
H   -2.116393  -5.587003   3.362731
H   -2.552682  -6.418435   1.909495
C   -3.298167  -7.382146   3.664653
H   -2.388782  -7.966002   3.818176
H   -3.929954  -7.998970   3.022929
C   -4.020724  -7.177353   5.012477
H   -4.932558  -6.600893   4.866332
C   -4.376860  -8.560855   5.598562
O   -3.515891  -9.175192   6.235065
C   -6.036199 -10.360937   5.919106
C   -6.692347  -8.432384   4.641770
C   -7.545838 -10.428400   5.683359
H   -5.791996 -10.470513   6.977365
H   -5.522717 -11.153397   5.372313
C   -7.779385  -9.498446   4.500336
H   -6.368610  -8.072414   3.664031
H   -7.067452  -7.581351   5.213217
H   -7.901186 -11.443610   5.502340
H   -8.070583 -10.044261   6.559574
H   -7.634814 -10.048553   3.569155
H   -8.785525  -9.077503   4.484021
N   -5.608516  -9.067745   5.390736
C   -3.612205  -6.070884   7.152010
O   -4.800264  -6.146104   7.469702
N   -3.173516  -6.432106   5.945429
H   -2.189067  -6.382575   5.740380
C   -3.639000  -6.212498  10.168278
C   -3.662185  -6.050883  11.567285
C   -2.728100  -5.190297  12.180507
C   -1.769882  -4.499477  11.405872
C   -1.747836  -4.691195  10.005062
C   -2.697079  -5.516622   9.372497
H   -4.372537  -6.872244   9.730428
H   -2.759221  -5.049491  13.251836
H   -1.004535  -4.191096   9.406273
N   -2.650386  -5.607734   7.954789
H   -1.763702  -5.380125   7.529121
C   -4.720725  -6.770565  12.384666
C   -0.820557  -3.575182  12.076467
O   -0.574425  -3.613086  13.282978
F   -5.870141  -6.107076  12.285294
F   -4.899955  -8.008562  11.925941
F   -4.379129  -6.844741  13.670373
O   -0.298450  -2.675355  11.229036
C    0.644972  -1.712920  11.676631
H    0.543954  -1.513338  12.744555
H    0.437415  -0.764311  11.183521
C    2.075128  -2.173152  11.356078
H    2.768153  -1.387341  11.654157
H    2.314716  -3.018618  12.001804
C    2.341494  -2.599174   9.891510
H    1.790458  -3.518389   9.687948
H    3.392225  -2.883055   9.817242
C    2.042201  -1.578792   8.762705
H    2.343087  -2.084618   7.843441
C    2.843977  -0.268524   8.745237
O    3.542975   0.023956   9.715552
C    3.445417   1.834346   7.600615
C    1.979823   0.317487   6.450602
C    2.932519   2.521409   6.334150
H    4.517262   1.642557   7.527581
H    3.275076   2.449477   8.486004
C    2.461838   1.371489   5.455004
H    0.917245   0.460427   6.649801
H    2.120536  -0.688234   6.052378
H    2.085810   3.163468   6.581999
H    3.689731   3.141535   5.852676
H    1.688790   1.668592   4.745115
H    3.304314   0.978876   4.883369
N    2.739258   0.556497   7.680262

1 2 2.0 3 1.0 14 1.0 
2 
3 4 1.0 
4 
5 6 1.5 10 1.5 11 1.0 
6 7 1.5 16 1.0 
7 8 1.5 12 1.0 
8 9 1.5 17 1.0 
9 10 1.5 13 1.0 
10 14 1.0 
11 
12 
13 
14 15 1.0 
15 
16 19 1.0 20 1.0 21 1.0 
17 18 2.0 22 1.0 
18 
19 
20 
21 
22 23 1.0 
23 24 1.0 25 1.0 26 1.0 
24 
25 
26 27 1.0 28 1.0 29 1.0 
27 
28 
29 30 1.0 31 1.0 32 1.0 
30 
31 
32 33 1.0 34 1.0 51 1.0 
33 
34 35 2.0 48 1.0 
35 
36 38 1.0 39 1.0 40 1.0 48 1.0 
37 41 1.0 42 1.0 43 1.0 48 1.0 
38 41 1.0 44 1.0 45 1.0 
39 
40 
41 46 1.0 47 1.0 
42 
43 
44 
45 
46 
47 
48 
49 50 2.0 51 1.0 62 1.0 
50 
51 52 1.0 
52 
53 54 1.5 58 1.5 59 1.0 
54 55 1.5 64 1.0 
55 56 1.5 60 1.0 
56 57 1.5 65 1.0 
57 58 1.5 61 1.0 
58 62 1.0 
59 
60 
61 
62 63 1.0 
63 
64 67 1.0 68 1.0 69 1.0 
65 66 2.0 70 1.0 
66 
67 
68 
69 
70 71 1.0 
71 72 1.0 73 1.0 74 1.0 
72 
73 
74 75 1.0 76 1.0 77 1.0 
75 
76 
77 78 1.0 79 1.0 80 1.0 
78 
79 
80 81 1.0 82 1.0 
81 
82 83 2.0 96 1.0 
83 
84 86 1.0 87 1.0 88 1.0 96 1.0 
85 89 1.0 90 1.0 91 1.0 96 1.0 
86 89 1.0 92 1.0 93 1.0 
87 
88 
89 94 1.0 95 1.0 
90 
91 
92 
93 
94 
95 
96 


