%mem=1GB
%nprocshared=12
#p geom=connect #p opt b3lyp m06-2x geom=connect scrf=(solvent=benzene) freq

00013

0 1
C   -1.259639  -2.092382   7.342629
O   -1.391551  -3.271346   7.006643
N   -0.107245  -1.555904   7.722010
H   -0.054909  -0.566911   7.920008
C   -4.458137  -1.368098   8.430154
C   -5.767511  -1.888608   8.436714
C   -6.262994  -2.531801   7.285402
C   -5.445026  -2.697147   6.143425
C   -4.122744  -2.210181   6.159485
C   -3.621828  -1.579813   7.318826
H   -4.065864  -0.903953   9.323370
H   -7.261803  -2.944515   7.308823
H   -3.475861  -2.386371   5.309484
N   -2.266366  -1.223405   7.430484
H   -2.065311  -0.318179   7.826241
C   -6.592778  -1.868144   9.708671
C   -5.912391  -3.499002   4.993968
O   -5.566610  -3.322607   3.826220
F   -7.468100  -0.867917   9.668372
F   -7.248432  -3.019465   9.832868
F   -5.815032  -1.727098  10.780865
O   -6.675994  -4.500725   5.425305
C   -6.989462  -5.605062   4.604242
H   -7.941612  -5.405020   4.112080
H   -6.247316  -5.782339   3.824738
C   -7.111969  -6.814268   5.543638
H   -7.940313  -7.427829   5.188066
H   -7.419421  -6.485033   6.537727
C   -5.880864  -7.738811   5.662206
H   -5.837376  -8.343791   4.756208
H   -6.089148  -8.452583   6.460414
C   -4.478045  -7.127506   5.922894
H   -3.901002  -7.876216   6.468622
C   -3.646092  -6.789233   4.678861
O   -3.575344  -5.610521   4.320362
C   -2.199630  -7.529739   2.821587
C   -2.967047  -9.189655   4.382938
C   -1.439819  -8.830272   2.556375
H   -1.516094  -6.688676   2.952083
H   -2.865524  -7.293944   1.989915
C   -2.303350  -9.903565   3.204799
H   -3.953787  -9.606925   4.582556
H   -2.362618  -9.307129   5.283843
H   -1.265412  -9.009662   1.494707
H   -0.467868  -8.794315   3.050966
H   -3.067015 -10.233782   2.498782
H   -1.731748 -10.781343   3.509074
N   -3.005025  -7.773187   4.016873
C   -4.623285  -5.935598   8.088177
O   -5.017047  -6.893406   8.751731
N   -4.502421  -5.952017   6.771566
H   -4.172269  -5.121001   6.300801
C   -4.950790  -4.789171  10.955000
C   -4.745719  -4.334047  12.274897
C   -3.597153  -3.565665  12.580625
C   -2.664069  -3.235929  11.570868
C   -2.882615  -3.710193  10.261108
C   -4.018901  -4.468766   9.946335
H   -5.848506  -5.344649  10.724273
H   -3.447500  -3.200733  13.586849
H   -2.178572  -3.484854   9.477334
N   -4.218074  -4.770912   8.586372
H   -3.800235  -4.127764   7.929084
C   -5.800158  -4.628611  13.325927
C   -1.481985  -2.387160  11.868373
O   -1.058234  -2.177230  13.005419
F   -6.910012  -3.956419  13.027187
F   -6.078154  -5.930570  13.336987
F   -5.400962  -4.270584  14.545339
O   -0.943440  -1.867414  10.748852
C    0.286791  -1.163430  10.772408
H    0.449204  -0.670632  11.732182
H    0.245663  -0.367589  10.029713
C    1.445064  -2.125171  10.455345
H    2.372146  -1.554224  10.397706
H    1.573976  -2.795158  11.306154
C    1.273225  -2.991303   9.183301
H    0.412501  -3.650067   9.304550
H    2.127468  -3.666183   9.134977
C    1.165716  -2.246809   7.829365
H    1.185104  -2.992348   7.032854
C    2.280879  -1.231240   7.547640
O    2.088869  -0.051645   7.860968
C    4.541131  -0.734696   6.689433
C    3.760528  -3.005793   6.566250
C    5.520535  -1.535440   5.830024
H    4.205654   0.168141   6.175772
H    5.008048  -0.432238   7.628173
C    5.247391  -2.984838   6.208439
H    3.559553  -3.743970   7.342622
H    3.163836  -3.263250   5.689619
H    6.559476  -1.243684   5.988844
H    5.290817  -1.383376   4.774223
H    5.839352  -3.250880   7.085648
H    5.501319  -3.686077   5.412453
N    3.433825  -1.642268   6.983362

1 2 2.0 3 1.0 14 1.0 
2 
3 4 1.0 
4 
5 6 1.5 10 1.5 11 1.0 
6 7 1.5 16 1.0 
7 8 1.5 12 1.0 
8 9 1.5 17 1.0 
9 10 1.5 13 1.0 
10 14 1.0 
11 
12 
13 
14 15 1.0 
15 
16 19 1.0 20 1.0 21 1.0 
17 18 2.0 22 1.0 
18 
19 
20 
21 
22 23 1.0 
23 24 1.0 25 1.0 26 1.0 
24 
25 
26 27 1.0 28 1.0 29 1.0 
27 
28 
29 30 1.0 31 1.0 32 1.0 
30 
31 
32 33 1.0 34 1.0 51 1.0 
33 
34 35 2.0 48 1.0 
35 
36 38 1.0 39 1.0 40 1.0 48 1.0 
37 41 1.0 42 1.0 43 1.0 48 1.0 
38 41 1.0 44 1.0 45 1.0 
39 
40 
41 46 1.0 47 1.0 
42 
43 
44 
45 
46 
47 
48 
49 50 2.0 51 1.0 62 1.0 
50 
51 52 1.0 
52 
53 54 1.5 58 1.5 59 1.0 
54 55 1.5 64 1.0 
55 56 1.5 60 1.0 
56 57 1.5 65 1.0 
57 58 1.5 61 1.0 
58 62 1.0 
59 
60 
61 
62 63 1.0 
63 
64 67 1.0 68 1.0 69 1.0 
65 66 2.0 70 1.0 
66 
67 
68 
69 
70 71 1.0 
71 72 1.0 73 1.0 74 1.0 
72 
73 
74 75 1.0 76 1.0 77 1.0 
75 
76 
77 78 1.0 79 1.0 80 1.0 
78 
79 
80 81 1.0 82 1.0 
81 
82 83 2.0 96 1.0 
83 
84 86 1.0 87 1.0 88 1.0 96 1.0 
85 89 1.0 90 1.0 91 1.0 96 1.0 
86 89 1.0 92 1.0 93 1.0 
87 
88 
89 94 1.0 95 1.0 
90 
91 
92 
93 
94 
95 
96 


