%mem=1GB
%nprocshared=12
#p geom=connect #p opt b3lyp m06-2x geom=connect scrf=(solvent=benzene) freq

00020

0 1
C   -2.185795  -2.418805   7.078773
O   -2.290932  -3.628408   7.257533
N   -1.008330  -1.804835   7.028229
H   -0.950496  -0.825558   6.789805
C   -5.462622  -1.089035   7.759895
C   -6.821228  -1.441578   7.905305
C   -7.297299  -2.632415   7.316908
C   -6.441426  -3.458164   6.554682
C   -5.094365  -3.064081   6.381762
C   -4.589388  -1.916894   7.028444
H   -5.087776  -0.202844   8.251041
H   -8.329718  -2.914333   7.471348
H   -4.424095  -3.659561   5.782547
N   -3.219217  -1.578802   6.975498
H   -3.003610  -0.593938   6.971751
C   -7.755155  -0.594026   8.749722
C   -6.952461  -4.748438   6.014688
O   -8.114255  -5.131790   6.154542
F   -7.255248   0.620109   8.969309
F   -7.938118  -1.199804   9.919215
F   -8.933676  -0.463700   8.144526
O   -5.987470  -5.475698   5.426150
C   -6.202084  -6.831930   5.063138
H   -7.223582  -6.964090   4.702972
H   -5.548669  -7.087365   4.228820
C   -5.932112  -7.771408   6.255115
H   -6.476434  -8.696806   6.064622
H   -6.382137  -7.368024   7.162869
C   -4.458025  -8.165683   6.518115
H   -4.102336  -8.774796   5.685593
H   -4.453742  -8.838369   7.376814
C   -3.432666  -7.040267   6.798489
H   -2.673072  -7.461158   7.457820
C   -2.680201  -6.503325   5.569086
O   -3.150235  -5.551295   4.943456
C   -0.740560  -6.619290   4.048059
C   -0.890095  -8.248504   5.809263
C    0.559635  -7.424781   4.073384
H   -1.298882  -6.817170   3.131577
H   -0.548534  -5.545907   4.097794
C    0.198768  -8.693524   4.832817
H   -1.596549  -9.057461   6.001320
H   -0.447312  -7.948382   6.760493
H    0.953145  -7.624376   3.075905
H    1.323189  -6.878024   4.626133
H    1.055783  -9.147203   5.332311
H   -0.209433  -9.430633   4.139496
N   -1.524390  -7.085142   5.190458
C   -4.006037  -5.736774   8.819544
O   -3.535668  -6.544192   9.620592
N   -4.045291  -5.934699   7.510312
H   -4.326834  -5.170440   6.913939
C   -5.015536  -2.865065  10.820916
C   -4.599096  -1.953108  11.811467
C   -3.245804  -1.933632  12.215381
C   -2.305028  -2.816185  11.636040
C   -2.745587  -3.734859  10.653199
C   -4.096697  -3.757965  10.241031
H   -6.045261  -2.854692  10.496381
H   -2.922261  -1.208525  12.948831
H   -2.034359  -4.388322  10.166718
N   -4.529178  -4.560111   9.161579
H   -5.087605  -4.089015   8.466678
C   -5.600446  -0.958774  12.371273
C   -0.862446  -2.693148  11.988534
O   -0.415540  -1.832220  12.747895
F   -6.760385  -1.561596  12.624792
F   -5.162212  -0.396294  13.496473
F   -5.800951  -0.004882  11.465543
O   -0.097145  -3.572055  11.316558
C    1.265427  -3.289743  11.030057
H    1.889099  -4.063367  11.478343
H    1.593953  -2.332133  11.437114
C    1.413971  -3.300762   9.497654
H    2.465700  -3.207776   9.225176
H    1.088969  -4.278061   9.138671
C    0.597594  -2.187103   8.811302
H    1.107178  -1.229312   8.929680
H   -0.343394  -2.065568   9.343673
C    0.263766  -2.448508   7.327326
H    0.137282  -3.520271   7.178232
C    1.310377  -1.927448   6.335323
O    1.310525  -0.721174   6.073899
C    3.194770  -2.356172   4.799003
C    2.273765  -4.224071   5.996938
C    3.758854  -3.642480   4.194205
H    2.771116  -1.707438   4.030084
H    3.975456  -1.796566   5.316681
C    3.542836  -4.686801   5.279961
H    2.312720  -4.482619   7.054767
H    1.393461  -4.698725   5.561993
H    3.184478  -3.913356   3.306843
H    4.804164  -3.548072   3.897353
H    4.383373  -4.668765   5.975515
H    3.463737  -5.699899   4.884252
N    2.192367  -2.780534   5.774522

1 2 2.0 3 1.0 14 1.0 
2 
3 4 1.0 
4 
5 6 1.5 10 1.5 11 1.0 
6 7 1.5 16 1.0 
7 8 1.5 12 1.0 
8 9 1.5 17 1.0 
9 10 1.5 13 1.0 
10 14 1.0 
11 
12 
13 
14 15 1.0 
15 
16 19 1.0 20 1.0 21 1.0 
17 18 2.0 22 1.0 
18 
19 
20 
21 
22 23 1.0 
23 24 1.0 25 1.0 26 1.0 
24 
25 
26 27 1.0 28 1.0 29 1.0 
27 
28 
29 30 1.0 31 1.0 32 1.0 
30 
31 
32 33 1.0 34 1.0 51 1.0 
33 
34 35 2.0 48 1.0 
35 
36 38 1.0 39 1.0 40 1.0 48 1.0 
37 41 1.0 42 1.0 43 1.0 48 1.0 
38 41 1.0 44 1.0 45 1.0 
39 
40 
41 46 1.0 47 1.0 
42 
43 
44 
45 
46 
47 
48 
49 50 2.0 51 1.0 62 1.0 
50 
51 52 1.0 
52 
53 54 1.5 58 1.5 59 1.0 
54 55 1.5 64 1.0 
55 56 1.5 60 1.0 
56 57 1.5 65 1.0 
57 58 1.5 61 1.0 
58 62 1.0 
59 
60 
61 
62 63 1.0 
63 
64 67 1.0 68 1.0 69 1.0 
65 66 2.0 70 1.0 
66 
67 
68 
69 
70 71 1.0 
71 72 1.0 73 1.0 74 1.0 
72 
73 
74 75 1.0 76 1.0 77 1.0 
75 
76 
77 78 1.0 79 1.0 80 1.0 
78 
79 
80 81 1.0 82 1.0 
81 
82 83 2.0 96 1.0 
83 
84 86 1.0 87 1.0 88 1.0 96 1.0 
85 89 1.0 90 1.0 91 1.0 96 1.0 
86 89 1.0 92 1.0 93 1.0 
87 
88 
89 94 1.0 95 1.0 
90 
91 
92 
93 
94 
95 
96 


