%mem=1GB
%nprocshared=12
#p geom=connect #p opt b3lyp m06-2x geom=connect scrf=(solvent=benzene) freq

00016

0 1
C   -1.035621  -2.546249   8.061359
O   -0.835616  -3.299065   7.103535
N   -0.079654  -1.847763   8.661111
H   -0.317967  -1.235192   9.428361
C   -4.442179  -3.349437   8.833076
C   -5.603185  -3.883282   8.235137
C   -5.818630  -3.712761   6.851496
C   -4.871738  -3.023438   6.060319
C   -3.699745  -2.526610   6.664228
C   -3.461182  -2.729280   8.039240
H   -4.260936  -3.504529   9.886129
H   -6.700587  -4.147178   6.402566
H   -2.952009  -2.042676   6.049699
N   -2.230201  -2.374639   8.630481
H   -2.272249  -1.915116   9.527044
C   -6.568843  -4.724701   9.043668
C   -4.999334  -2.908716   4.590596
O   -4.399177  -2.063306   3.925051
F   -6.161063  -4.877460  10.301945
F   -6.657718  -5.926662   8.484671
F   -7.772954  -4.158606   9.044765
O   -5.719796  -3.915390   4.061176
C   -5.501870  -4.292964   2.707666
H   -6.467850  -4.436646   2.223296
H   -4.999553  -3.507575   2.141186
C   -4.680342  -5.597040   2.623384
H   -4.273420  -5.665058   1.613929
H   -5.347046  -6.453899   2.716312
C   -3.523071  -5.711967   3.642784
H   -3.058543  -4.735993   3.782387
H   -2.732576  -6.328303   3.210590
C   -3.975786  -6.325967   4.989981
H   -4.945555  -5.923583   5.263340
C   -4.040249  -7.865494   4.894383
O   -2.987311  -8.485981   4.726886
C   -5.367360  -9.944635   4.952991
C   -6.528112  -7.861823   5.251280
C   -6.779687 -10.247778   5.454895
H   -4.613764 -10.448679   5.561041
H   -5.242439 -10.275779   3.920937
C   -7.564008  -8.980792   5.144048
H   -6.751834  -7.062488   4.543962
H   -6.529552  -7.438839   6.257298
H   -7.210696 -11.138288   4.995709
H   -6.757403 -10.407727   6.534087
H   -7.947099  -9.029448   4.123551
H   -8.414530  -8.834468   5.811110
N   -5.230292  -8.490711   5.001946
C   -3.219667  -6.279006   7.333797
O   -4.131319  -7.006103   7.723070
N   -3.087485  -5.893081   6.064002
H   -2.312464  -5.297695   5.815510
C   -3.234794  -6.157119  10.400313
C   -3.160525  -5.876666  11.780997
C   -2.051106  -5.166780  12.286296
C   -1.001217  -4.769360  11.429734
C   -1.060439  -5.123263  10.064320
C   -2.196965  -5.746912   9.529298
H   -4.130407  -6.633007  10.035481
H   -2.030483  -4.900480  13.333914
H   -0.269467  -4.832670   9.388310
N   -2.267096  -5.776478   8.114784
H   -1.559991  -5.226400   7.641781
C   -4.307996  -6.244141  12.705707
C    0.091611  -3.902002  11.938365
O    0.147643  -3.465774  13.088947
F   -5.004440  -5.145210  12.984698
F   -3.834300  -6.750360  13.842246
F   -5.126093  -7.139326  12.154136
O    0.968699  -3.599788  10.978026
C    1.891464  -2.546341  11.143682
H    2.428496  -2.647144  12.088099
H    1.355201  -1.597890  11.173949
C    2.878177  -2.582177   9.968966
H    3.514784  -1.698022  10.014253
H    3.549736  -3.428701  10.116042
C    2.247062  -2.715290   8.561941
H    1.774952  -3.693579   8.465011
H    3.068094  -2.743690   7.846388
C    1.250676  -1.617433   8.115412
H    1.157386  -1.686670   7.030127
C    1.649803  -0.170587   8.438957
O    1.187753   0.348996   9.460126
C    2.906812   1.872570   7.860829
C    3.075514  -0.012772   6.378189
C    3.603062   2.329297   6.578218
H    2.064370   2.520765   8.109197
H    3.600017   1.886442   8.703433
C    4.100548   1.036783   5.945816
H    3.550467  -0.985289   6.504209
H    2.292934  -0.110749   5.624050
H    4.403325   3.046962   6.763398
H    2.877355   2.804810   5.916515
H    5.079670   0.783415   6.355484
H    4.203270   1.107067   4.862153
N    2.486628   0.493948   7.617617

1 2 2.0 3 1.0 14 1.0 
2 
3 4 1.0 
4 
5 6 1.5 10 1.5 11 1.0 
6 7 1.5 16 1.0 
7 8 1.5 12 1.0 
8 9 1.5 17 1.0 
9 10 1.5 13 1.0 
10 14 1.0 
11 
12 
13 
14 15 1.0 
15 
16 19 1.0 20 1.0 21 1.0 
17 18 2.0 22 1.0 
18 
19 
20 
21 
22 23 1.0 
23 24 1.0 25 1.0 26 1.0 
24 
25 
26 27 1.0 28 1.0 29 1.0 
27 
28 
29 30 1.0 31 1.0 32 1.0 
30 
31 
32 33 1.0 34 1.0 51 1.0 
33 
34 35 2.0 48 1.0 
35 
36 38 1.0 39 1.0 40 1.0 48 1.0 
37 41 1.0 42 1.0 43 1.0 48 1.0 
38 41 1.0 44 1.0 45 1.0 
39 
40 
41 46 1.0 47 1.0 
42 
43 
44 
45 
46 
47 
48 
49 50 2.0 51 1.0 62 1.0 
50 
51 52 1.0 
52 
53 54 1.5 58 1.5 59 1.0 
54 55 1.5 64 1.0 
55 56 1.5 60 1.0 
56 57 1.5 65 1.0 
57 58 1.5 61 1.0 
58 62 1.0 
59 
60 
61 
62 63 1.0 
63 
64 67 1.0 68 1.0 69 1.0 
65 66 2.0 70 1.0 
66 
67 
68 
69 
70 71 1.0 
71 72 1.0 73 1.0 74 1.0 
72 
73 
74 75 1.0 76 1.0 77 1.0 
75 
76 
77 78 1.0 79 1.0 80 1.0 
78 
79 
80 81 1.0 82 1.0 
81 
82 83 2.0 96 1.0 
83 
84 86 1.0 87 1.0 88 1.0 96 1.0 
85 89 1.0 90 1.0 91 1.0 96 1.0 
86 89 1.0 92 1.0 93 1.0 
87 
88 
89 94 1.0 95 1.0 
90 
91 
92 
93 
94 
95 
96 


