%mem=1GB
%nprocshared=12
#p geom=connect #p opt b3lyp m06-2x geom=connect scrf=(solvent=benzene) freq

00015

0 1
C   -0.427066  -1.724168   8.324384
O   -0.065576  -2.580764   7.519877
N    0.423179  -1.017235   9.057601
H    0.073725  -0.305731   9.683873
C   -3.962506  -0.793292   8.050282
C   -5.193662  -1.024123   7.406591
C   -5.309515  -2.092347   6.492346
C   -4.211404  -2.951154   6.241472
C   -2.984883  -2.705611   6.900364
C   -2.855243  -1.630435   7.812215
H   -3.893178   0.019816   8.758326
H   -6.264039  -2.265744   6.017079
H   -2.166684  -3.391072   6.733449
N   -1.691853  -1.382599   8.581841
H   -1.810517  -0.701564   9.315098
C   -6.384662  -0.142213   7.738156
C   -4.343310  -4.159671   5.382260
O   -3.426923  -4.962922   5.191037
F   -6.436979   0.077119   9.051216
F   -7.532414  -0.705315   7.363519
F   -6.255694   1.025401   7.113402
O   -5.590482  -4.313969   4.899529
C   -6.026918  -5.578695   4.429525
H   -6.651315  -5.445734   3.546022
H   -5.187705  -6.198563   4.121192
C   -6.841344  -6.224396   5.563241
H   -7.863420  -5.848210   5.510801
H   -6.477264  -5.879623   6.530859
C   -6.868225  -7.764816   5.574637
H   -7.413929  -8.111034   4.695584
H   -7.480375  -8.072506   6.423483
C   -5.503972  -8.503600   5.680396
H   -5.631416  -9.357047   6.348534
C   -4.971426  -9.055616   4.349995
O   -4.100288  -8.418050   3.749793
C   -5.019150 -10.807405   2.610549
C   -6.480273 -11.054498   4.505142
C   -5.628702 -12.209609   2.570969
H   -3.930606 -10.843180   2.537827
H   -5.390520 -10.200633   1.783125
C   -6.860160 -12.104870   3.460625
H   -7.356471 -10.490550   4.826370
H   -6.045727 -11.534601   5.383440
H   -5.863293 -12.540746   1.558517
H   -4.927053 -12.926520   3.000313
H   -7.706525 -11.747231   2.872033
H   -7.145225 -13.059633   3.904440
N   -5.465251 -10.214029   3.869439
C   -4.325821  -7.336293   7.539065
O   -5.149412  -7.610978   8.410262
N   -4.459131  -7.678478   6.265660
H   -3.752284  -7.388810   5.601418
C   -3.903561  -4.956969   9.387754
C   -3.549547  -3.978500  10.339191
C   -2.211698  -3.883808  10.774617
C   -1.212056  -4.723132  10.225594
C   -1.574985  -5.668613   9.240644
C   -2.914685  -5.793543   8.824855
H   -4.926393  -5.009814   9.044441
H   -1.961435  -3.128642  11.505582
H   -0.812914  -6.288277   8.787113
N   -3.200197  -6.655653   7.745382
H   -2.522363  -6.656247   6.997839
C   -4.581586  -2.978980  10.827987
C    0.215372  -4.601530  10.622701
O    1.096479  -5.366082  10.224936
F   -5.576841  -2.853746   9.951044
F   -5.077962  -3.375597  11.996223
F   -4.018741  -1.781417  10.978182
O    0.437952  -3.560651  11.447860
C    1.748045  -3.261762  11.912275
H    2.459306  -4.068739  11.730203
H    1.695626  -3.138643  12.994155
C    2.235955  -1.955199  11.275778
H    1.504156  -1.175058  11.486364
H    3.147809  -1.635356  11.781142
C    2.523719  -2.077709   9.762907
H    2.212528  -3.050146   9.384190
H    3.603555  -2.066562   9.615475
C    1.868210  -0.986219   8.895743
H    2.086275  -1.207483   7.849654
C    2.349763   0.444456   9.174784
O    1.696085   1.141599   9.957656
C    3.986461   2.250946   8.786605
C    4.295099   0.176432   7.610309
C    5.074379   2.452046   7.730696
H    3.207289   3.011160   8.706098
H    4.407530   2.307915   9.791677
C    5.540433   1.039756   7.404188
H    4.567727  -0.820538   7.956270
H    3.748139   0.072000   6.671832
H    5.883736   3.097468   8.074370
H    4.640660   2.909356   6.839986
H    6.316097   0.738858   8.110227
H    5.955150   0.951688   6.399169
N    3.463235   0.903602   8.569328

1 2 2.0 3 1.0 14 1.0 
2 
3 4 1.0 
4 
5 6 1.5 10 1.5 11 1.0 
6 7 1.5 16 1.0 
7 8 1.5 12 1.0 
8 9 1.5 17 1.0 
9 10 1.5 13 1.0 
10 14 1.0 
11 
12 
13 
14 15 1.0 
15 
16 19 1.0 20 1.0 21 1.0 
17 18 2.0 22 1.0 
18 
19 
20 
21 
22 23 1.0 
23 24 1.0 25 1.0 26 1.0 
24 
25 
26 27 1.0 28 1.0 29 1.0 
27 
28 
29 30 1.0 31 1.0 32 1.0 
30 
31 
32 33 1.0 34 1.0 51 1.0 
33 
34 35 2.0 48 1.0 
35 
36 38 1.0 39 1.0 40 1.0 48 1.0 
37 41 1.0 42 1.0 43 1.0 48 1.0 
38 41 1.0 44 1.0 45 1.0 
39 
40 
41 46 1.0 47 1.0 
42 
43 
44 
45 
46 
47 
48 
49 50 2.0 51 1.0 62 1.0 
50 
51 52 1.0 
52 
53 54 1.5 58 1.5 59 1.0 
54 55 1.5 64 1.0 
55 56 1.5 60 1.0 
56 57 1.5 65 1.0 
57 58 1.5 61 1.0 
58 62 1.0 
59 
60 
61 
62 63 1.0 
63 
64 67 1.0 68 1.0 69 1.0 
65 66 2.0 70 1.0 
66 
67 
68 
69 
70 71 1.0 
71 72 1.0 73 1.0 74 1.0 
72 
73 
74 75 1.0 76 1.0 77 1.0 
75 
76 
77 78 1.0 79 1.0 80 1.0 
78 
79 
80 81 1.0 82 1.0 
81 
82 83 2.0 96 1.0 
83 
84 86 1.0 87 1.0 88 1.0 96 1.0 
85 89 1.0 90 1.0 91 1.0 96 1.0 
86 89 1.0 92 1.0 93 1.0 
87 
88 
89 94 1.0 95 1.0 
90 
91 
92 
93 
94 
95 
96 


