%mem=1GB
%nprocshared=12
#p geom=connect #p opt b3lyp m06-2x geom=connect scrf=(solvent=benzene) freq

00024

0 1
C    2.299070  -1.411199   5.039360
O    2.329296  -2.551469   4.582757
N    3.346473  -0.790919   5.592223
H    3.188232   0.149692   5.914969
C   -1.214949  -0.698665   5.409597
C   -2.510985  -1.102637   5.026947
C   -2.684016  -1.851148   3.843346
C   -1.570705  -2.216180   3.048445
C   -0.281684  -1.798296   3.442211
C   -0.095015  -1.062179   4.635014
H   -1.091443  -0.144301   6.328315
H   -3.678489  -2.176693   3.575631
H    0.571106  -2.083546   2.840973
N    1.189642  -0.667405   5.079916
H    1.235119   0.201448   5.588223
C   -3.695904  -0.780523   5.921379
C   -1.709376  -3.115628   1.873029
O   -0.778269  -3.396224   1.116870
F   -3.671653  -1.575488   6.987813
F   -4.854318  -0.960795   5.288312
F   -3.631280   0.485212   6.329316
O   -2.937567  -3.669040   1.794900
C   -3.157584  -4.833773   1.012457
H   -4.071319  -4.689808   0.435664
H   -2.362328  -4.997349   0.283778
C   -3.311900  -6.071765   1.918653
H   -3.440888  -6.938459   1.269485
H   -4.231839  -6.003554   2.499467
C   -2.106031  -6.325498   2.843829
H   -1.195822  -6.064947   2.301425
H   -2.019538  -7.397503   3.031376
C   -2.187970  -5.561927   4.187391
H   -2.652570  -4.595241   4.049574
C   -2.943765  -6.374311   5.255007
O   -2.444015  -7.431836   5.648818
C   -4.856245  -6.579005   6.801961
C   -4.756071  -4.641589   5.386492
C   -5.864340  -5.551381   7.318496
H   -4.206834  -6.935271   7.603854
H   -5.366590  -7.443292   6.374262
C   -6.088442  -4.622238   6.133874
H   -4.913286  -4.542855   4.311685
H   -4.126255  -3.815812   5.718935
H   -6.786217  -6.007449   7.681494
H   -5.423707  -4.989941   8.143982
H   -6.874236  -5.027270   5.494383
H   -6.388808  -3.617270   6.433739
N   -4.107813  -5.903114   5.745473
C   -0.529896  -4.568250   5.722619
O   -1.339313  -3.840177   6.292001
N   -0.838983  -5.300297   4.650511
H   -0.096851  -5.848866   4.247160
C    1.332511  -7.066952   5.604493
C    2.336537  -8.014267   5.311227
C    3.695850  -7.624365   5.330753
C    4.053842  -6.295096   5.648394
C    3.028896  -5.360835   5.914718
C    1.674548  -5.721138   5.872089
H    0.304610  -7.399650   5.619443
H    4.465104  -8.351289   5.111290
H    3.275312  -4.334761   6.122916
N    0.728042  -4.698007   6.146363
H    1.028888  -3.985941   6.796586
C    1.937643  -9.444158   4.987942
C    5.479406  -5.864394   5.668025
O    6.396941  -6.494470   5.141565
F    0.813548  -9.454561   4.271765
F    1.730390 -10.110974   6.120659
F    2.885666 -10.067847   4.289707
O    5.637575  -4.699447   6.321733
C    6.825936  -3.930815   6.231997
H    7.702546  -4.556334   6.056941
H    6.987341  -3.457288   7.198626
C    6.690191  -2.856135   5.130450
H    7.417819  -2.060398   5.284992
H    6.987794  -3.327821   4.193079
C    5.272398  -2.275826   4.905294
H    4.623687  -3.117770   4.684281
H    5.305645  -1.707835   3.974961
C    4.644383  -1.346764   5.989027
H    5.281032  -0.465026   6.032488
C    4.505875  -1.900005   7.422497
O    3.506912  -2.563255   7.713973
C    5.408268  -2.179606   9.698370
C    6.642161  -0.796617   8.171325
C    6.520188  -1.474181  10.475535
H    4.434745  -2.021363  10.166115
H    5.588137  -3.255211   9.656681
C    7.512039  -1.051178   9.401766
H    7.196091  -1.008079   7.258879
H    6.327863   0.247851   8.139517
H    6.968572  -2.107783  11.241862
H    6.117029  -0.589347  10.970652
H    8.203641  -1.870623   9.199569
H    8.103681  -0.181202   9.689714
N    5.459395  -1.640632   8.340639

1 2 2.0 3 1.0 14 1.0 
2 
3 4 1.0 
4 
5 6 1.5 10 1.5 11 1.0 
6 7 1.5 16 1.0 
7 8 1.5 12 1.0 
8 9 1.5 17 1.0 
9 10 1.5 13 1.0 
10 14 1.0 
11 
12 
13 
14 15 1.0 
15 
16 19 1.0 20 1.0 21 1.0 
17 18 2.0 22 1.0 
18 
19 
20 
21 
22 23 1.0 
23 24 1.0 25 1.0 26 1.0 
24 
25 
26 27 1.0 28 1.0 29 1.0 
27 
28 
29 30 1.0 31 1.0 32 1.0 
30 
31 
32 33 1.0 34 1.0 51 1.0 
33 
34 35 2.0 48 1.0 
35 
36 38 1.0 39 1.0 40 1.0 48 1.0 
37 41 1.0 42 1.0 43 1.0 48 1.0 
38 41 1.0 44 1.0 45 1.0 
39 
40 
41 46 1.0 47 1.0 
42 
43 
44 
45 
46 
47 
48 
49 50 2.0 51 1.0 62 1.0 
50 
51 52 1.0 
52 
53 54 1.5 58 1.5 59 1.0 
54 55 1.5 64 1.0 
55 56 1.5 60 1.0 
56 57 1.5 65 1.0 
57 58 1.5 61 1.0 
58 62 1.0 
59 
60 
61 
62 63 1.0 
63 
64 67 1.0 68 1.0 69 1.0 
65 66 2.0 70 1.0 
66 
67 
68 
69 
70 71 1.0 
71 72 1.0 73 1.0 74 1.0 
72 
73 
74 75 1.0 76 1.0 77 1.0 
75 
76 
77 78 1.0 79 1.0 80 1.0 
78 
79 
80 81 1.0 82 1.0 
81 
82 83 2.0 96 1.0 
83 
84 86 1.0 87 1.0 88 1.0 96 1.0 
85 89 1.0 90 1.0 91 1.0 96 1.0 
86 89 1.0 92 1.0 93 1.0 
87 
88 
89 94 1.0 95 1.0 
90 
91 
92 
93 
94 
95 
96 


