%mem=1GB
%nprocshared=12
#p geom=connect #p opt b3lyp m06-2x geom=connect scrf=(solvent=benzene) freq

00029

0 1
C   -0.921782  -1.528591   6.819193
O   -1.036230  -1.767476   8.019290
N    0.238895  -1.267344   6.209841
H    0.183114  -1.015547   5.236775
C   -3.917636  -1.618413   7.479950
C   -5.197520  -2.128913   7.775272
C   -5.839469  -2.968871   6.845013
C   -5.209087  -3.305636   5.625980
C   -3.932206  -2.779266   5.334405
C   -3.267040  -1.962721   6.271781
H   -3.431728  -0.981398   8.204626
H   -6.819181  -3.358670   7.080801
H   -3.443709  -3.055292   4.409379
N   -1.954049  -1.526351   5.969926
H   -1.743002  -1.403567   4.992277
C   -5.866415  -1.807231   9.098205
C   -5.851030  -4.245267   4.678966
O   -5.635625  -4.258527   3.465758
F   -6.603620  -0.708033   8.970242
F   -6.655358  -2.812934   9.473186
F   -4.959855  -1.609846  10.052366
O   -6.648241  -5.112553   5.318967
C   -7.258134  -6.175379   4.614156
H   -8.117275  -5.777884   4.072551
H   -6.584634  -6.619037   3.878974
C   -7.713918  -7.225153   5.635593
H   -8.588975  -7.723528   5.216914
H   -8.079034  -6.738497   6.540788
C   -6.692855  -8.333678   5.979905
H   -6.549094  -8.948397   5.090104
H   -7.175818  -9.000225   6.695570
C   -5.311160  -7.941628   6.567706
H   -4.974184  -8.764294   7.200149
C   -4.235839  -7.733350   5.476007
O   -3.978288  -6.592399   5.087614
C   -2.580321  -8.710226   3.923269
C   -3.788526 -10.203186   5.368769
C   -1.941956 -10.096666   3.827873
H   -1.836763  -7.943908   4.150161
H   -3.063089  -8.440413   2.982631
C   -3.021856 -11.038212   4.342603
H   -4.837472 -10.498075   5.403707
H   -3.363629 -10.344472   6.363994
H   -1.610718 -10.341758   2.817965
H   -1.071324 -10.144962   4.483842
H   -3.687370 -11.313704   3.522943
H   -2.616168 -11.958895   4.763967
N   -3.600096  -8.808756   4.966523
C   -4.477240  -6.338090   8.245794
O   -3.359804  -6.852319   8.303397
N   -5.448483  -6.788857   7.453438
H   -6.314909  -6.279687   7.394948
C   -4.861786  -4.379295  11.229265
C   -4.216187  -3.701873  12.282064
C   -2.840056  -3.403727  12.178050
C   -2.107069  -3.768600  11.025424
C   -2.775748  -4.435029   9.969627
C   -4.151918  -4.739073  10.068261
H   -5.920010  -4.580609  11.311326
H   -2.350942  -2.865686  12.977702
H   -2.243104  -4.675412   9.059520
N   -4.873291  -5.307066   8.993094
H   -5.844394  -5.045390   8.925414
C   -5.033175  -3.251162  13.478852
C   -0.675468  -3.375994  10.909963
O   -0.107468  -2.628034  11.708681
F   -5.823084  -2.247566  13.103656
F   -5.794060  -4.252904  13.916376
F   -4.261082  -2.837089  14.482593
O   -0.078089  -3.915442   9.837766
C    1.139303  -3.374560   9.359890
H    1.984287  -3.744275   9.941439
H    1.118191  -2.292084   9.468913
C    1.261119  -3.767579   7.880410
H    1.701302  -4.764244   7.838842
H    0.277723  -3.895696   7.431186
C    2.102926  -2.816661   7.008620
H    2.235917  -3.305717   6.042914
H    3.102641  -2.783807   7.440672
C    1.611881  -1.360636   6.725514
H    2.181743  -1.040665   5.854013
C    1.953022  -0.309541   7.808970
O    1.083633   0.066876   8.596583
C    3.612263   1.170450   8.883916
C    4.321570  -0.100045   6.972333
C    4.987279   1.679235   8.449473
H    2.896065   1.989578   8.971820
H    3.672455   0.673956   9.853767
C    5.553394   0.543367   7.609828
H    4.484068  -1.165271   6.813924
H    4.118948   0.357579   6.002689
H    5.626649   1.943601   9.292722
H    4.869931   2.569604   7.829742
H    6.049804  -0.179042   8.259760
H    6.283006   0.882955   6.873523
N    3.206482   0.189911   7.876408

1 2 2.0 3 1.0 14 1.0 
2 
3 4 1.0 
4 
5 6 1.5 10 1.5 11 1.0 
6 7 1.5 16 1.0 
7 8 1.5 12 1.0 
8 9 1.5 17 1.0 
9 10 1.5 13 1.0 
10 14 1.0 
11 
12 
13 
14 15 1.0 
15 
16 19 1.0 20 1.0 21 1.0 
17 18 2.0 22 1.0 
18 
19 
20 
21 
22 23 1.0 
23 24 1.0 25 1.0 26 1.0 
24 
25 
26 27 1.0 28 1.0 29 1.0 
27 
28 
29 30 1.0 31 1.0 32 1.0 
30 
31 
32 33 1.0 34 1.0 51 1.0 
33 
34 35 2.0 48 1.0 
35 
36 38 1.0 39 1.0 40 1.0 48 1.0 
37 41 1.0 42 1.0 43 1.0 48 1.0 
38 41 1.0 44 1.0 45 1.0 
39 
40 
41 46 1.0 47 1.0 
42 
43 
44 
45 
46 
47 
48 
49 50 2.0 51 1.0 62 1.0 
50 
51 52 1.0 
52 
53 54 1.5 58 1.5 59 1.0 
54 55 1.5 64 1.0 
55 56 1.5 60 1.0 
56 57 1.5 65 1.0 
57 58 1.5 61 1.0 
58 62 1.0 
59 
60 
61 
62 63 1.0 
63 
64 67 1.0 68 1.0 69 1.0 
65 66 2.0 70 1.0 
66 
67 
68 
69 
70 71 1.0 
71 72 1.0 73 1.0 74 1.0 
72 
73 
74 75 1.0 76 1.0 77 1.0 
75 
76 
77 78 1.0 79 1.0 80 1.0 
78 
79 
80 81 1.0 82 1.0 
81 
82 83 2.0 96 1.0 
83 
84 86 1.0 87 1.0 88 1.0 96 1.0 
85 89 1.0 90 1.0 91 1.0 96 1.0 
86 89 1.0 92 1.0 93 1.0 
87 
88 
89 94 1.0 95 1.0 
90 
91 
92 
93 
94 
95 
96 


