%mem=1GB
%nprocshared=12
#p geom=connect #p opt b3lyp m06-2x geom=connect scrf=(solvent=benzene) freq

00022

0 1
C   -0.634559  -2.062522   7.679186
O    0.186364  -2.941355   7.423091
N   -0.312837  -0.908000   8.247487
H   -1.022883  -0.204668   8.394381
C   -4.081610  -2.919057   6.677716
C   -4.884120  -3.702413   5.826372
C   -4.273040  -4.553292   4.890395
C   -2.870654  -4.732967   4.884688
C   -2.073739  -3.924312   5.722820
C   -2.675529  -3.002446   6.614795
H   -4.557849  -2.265596   7.394328
H   -4.913559  -5.149138   4.256874
H   -1.002183  -4.059341   5.691394
N   -1.951452  -2.151197   7.484225
H   -2.498310  -1.421203   7.912576
C   -6.389757  -3.754894   5.987110
C   -2.247348  -5.859208   4.136860
O   -1.033628  -6.044519   4.050937
F   -6.988218  -3.794014   4.799546
F   -6.858305  -2.714801   6.673574
F   -6.677333  -4.876013   6.644458
O   -3.175927  -6.722478   3.689728
C   -2.856039  -8.075812   3.412244
H   -3.575908  -8.463528   2.691352
H   -1.875188  -8.147269   2.939587
C   -2.897552  -8.924171   4.701408
H   -2.190584  -8.525652   5.428543
H   -2.510732  -9.912923   4.453412
C   -4.292449  -9.121532   5.348548
H   -4.193414  -9.811880   6.187394
H   -4.936875  -9.637444   4.635405
C   -5.016582  -7.837379   5.821549
H   -5.205819  -7.261838   4.925427
C   -6.370466  -8.057378   6.514039
O   -6.386696  -8.445655   7.683709
C   -8.829019  -7.873900   6.467167
C   -7.631510  -7.360038   4.450352
C   -9.786401  -7.174987   5.502111
H   -9.100142  -8.923400   6.592039
H   -8.845205  -7.403174   7.452023
C   -9.128168  -7.348782   4.141207
H   -7.224462  -6.353908   4.347951
H   -7.094718  -8.018783   3.765592
H  -10.798027  -7.580956   5.540410
H   -9.843931  -6.113319   5.747939
H   -9.408081  -6.568459   3.432284
H   -9.422166  -8.308142   3.712466
N   -7.510964  -7.797296   5.841935
C   -3.409127  -7.243237   7.658400
O   -3.300832  -8.371345   8.135060
N   -4.191889  -6.948606   6.628562
H   -4.220510  -5.983962   6.344202
C   -1.062874  -7.178092   9.609282
C   -0.191180  -7.044687  10.707939
C   -0.095985  -5.801909  11.367595
C   -0.840003  -4.687987  10.919150
C   -1.714078  -4.838549   9.817465
C   -1.847088  -6.084444   9.171901
H   -1.109825  -8.138514   9.118690
H    0.570759  -5.699381  12.212243
H   -2.301791  -3.997788   9.478465
N   -2.746153  -6.162705   8.079481
H   -2.963518  -5.284987   7.634603
C    0.623165  -8.241369  11.171452
C   -0.669407  -3.385150  11.610519
O   -0.191037  -3.273702  12.740641
F    1.636783  -7.872083  11.953788
F   -0.163376  -9.068483  11.855781
F    1.121990  -8.895041  10.123306
O   -1.035858  -2.345513  10.845585
C   -0.795214  -1.008660  11.265196
H   -1.186544  -0.853989  12.271810
H   -1.365882  -0.345760  10.615373
C    0.700482  -0.629124  11.206864
H    0.796823   0.447891  11.346212
H    1.199557  -1.068590  12.071025
C    1.470562  -1.076941   9.942233
H    1.453340  -2.164660   9.866967
H    2.520899  -0.832156  10.098534
C    1.023100  -0.463285   8.596543
H    1.690729  -0.833419   7.816842
C    1.037748   1.069878   8.539435
O   -0.006422   1.673998   8.806704
C    2.265950   3.173517   8.140777
C    3.454903   1.101876   7.862681
C    3.615643   3.475700   7.487990
H    2.226418   3.578980   9.153081
H    1.441794   3.609061   7.572831
C    4.463081   2.250423   7.802853
H    3.366768   0.624579   6.885331
H    3.770864   0.346307   8.581934
H    3.488671   3.565048   6.407943
H    4.061398   4.404023   7.847527
H    5.253847   2.082058   7.070627
H    4.935872   2.374398   8.778451
N    2.174029   1.716534   8.211503

1 2 2.0 3 1.0 14 1.0 
2 
3 4 1.0 
4 
5 6 1.5 10 1.5 11 1.0 
6 7 1.5 16 1.0 
7 8 1.5 12 1.0 
8 9 1.5 17 1.0 
9 10 1.5 13 1.0 
10 14 1.0 
11 
12 
13 
14 15 1.0 
15 
16 19 1.0 20 1.0 21 1.0 
17 18 2.0 22 1.0 
18 
19 
20 
21 
22 23 1.0 
23 24 1.0 25 1.0 26 1.0 
24 
25 
26 27 1.0 28 1.0 29 1.0 
27 
28 
29 30 1.0 31 1.0 32 1.0 
30 
31 
32 33 1.0 34 1.0 51 1.0 
33 
34 35 2.0 48 1.0 
35 
36 38 1.0 39 1.0 40 1.0 48 1.0 
37 41 1.0 42 1.0 43 1.0 48 1.0 
38 41 1.0 44 1.0 45 1.0 
39 
40 
41 46 1.0 47 1.0 
42 
43 
44 
45 
46 
47 
48 
49 50 2.0 51 1.0 62 1.0 
50 
51 52 1.0 
52 
53 54 1.5 58 1.5 59 1.0 
54 55 1.5 64 1.0 
55 56 1.5 60 1.0 
56 57 1.5 65 1.0 
57 58 1.5 61 1.0 
58 62 1.0 
59 
60 
61 
62 63 1.0 
63 
64 67 1.0 68 1.0 69 1.0 
65 66 2.0 70 1.0 
66 
67 
68 
69 
70 71 1.0 
71 72 1.0 73 1.0 74 1.0 
72 
73 
74 75 1.0 76 1.0 77 1.0 
75 
76 
77 78 1.0 79 1.0 80 1.0 
78 
79 
80 81 1.0 82 1.0 
81 
82 83 2.0 96 1.0 
83 
84 86 1.0 87 1.0 88 1.0 96 1.0 
85 89 1.0 90 1.0 91 1.0 96 1.0 
86 89 1.0 92 1.0 93 1.0 
87 
88 
89 94 1.0 95 1.0 
90 
91 
92 
93 
94 
95 
96 


