%mem=1GB
%nprocshared=12
#p geom=connect #p opt b3lyp m06-2x geom=connect scrf=(solvent=benzene) freq

00008

0 1
C   -1.274806  -3.352327   7.500201
O   -1.003037  -4.310917   6.772080
N   -0.355947  -2.554652   8.030225
H   -0.649092  -1.766325   8.590513
C   -4.863923  -3.629511   7.938140
C   -6.018703  -4.157970   7.322795
C   -6.024830  -4.384076   5.929190
C   -4.877660  -4.100709   5.152745
C   -3.725576  -3.592158   5.784877
C   -3.698930  -3.397016   7.182607
H   -4.859203  -3.480403   9.007930
H   -6.905493  -4.806032   5.466549
H   -2.839050  -3.409997   5.192090
N   -2.516921  -3.011323   7.854680
H   -2.626510  -2.361895   8.618175
C   -7.216558  -4.537927   8.173391
C   -4.793719  -4.433331   3.711703
O   -3.960315  -3.938810   2.950919
F   -7.985349  -3.468097   8.355596
F   -6.816806  -4.986054   9.361653
F   -7.937888  -5.493214   7.588382
O   -5.629639  -5.432633   3.369256
C   -5.335098  -6.236497   2.233946
H   -6.246689  -6.363959   1.649896
H   -4.618294  -5.755228   1.567142
C   -4.797469  -7.618154   2.663217
H   -4.362333  -8.089596   1.781403
H   -5.628337  -8.263012   2.948128
C   -3.738003  -7.584216   3.788441
H   -3.099056  -6.710855   3.655330
H   -3.066875  -8.436831   3.669210
C   -4.364475  -7.613533   5.203814
H   -5.242743  -6.978822   5.229957
C   -4.732955  -9.055150   5.612055
O   -3.820187  -9.867375   5.781865
C   -6.455272 -10.723379   6.195333
C   -7.183623  -8.498153   5.656142
C   -7.924380 -10.586562   6.597701
H   -5.852547 -11.109425   7.019562
H   -6.345886 -11.405962   5.351217
C   -8.418000  -9.387970   5.799680
H   -7.203558  -7.963312   4.705975
H   -7.151147  -7.762920   6.461711
H   -8.502213 -11.491718   6.406821
H   -7.992192 -10.367629   7.664564
H   -8.749694  -9.716956   4.813642
H   -9.254280  -8.875862   6.277396
N   -6.028887  -9.388613   5.780958
C   -3.737159  -6.861650   7.456817
O   -4.844339  -7.128718   7.923820
N   -3.441829  -7.023961   6.166528
H   -2.516826  -6.790917   5.841925
C   -3.779007  -5.861681  10.361104
C   -3.663826  -5.282287  11.639154
C   -2.409915  -4.807104  12.075451
C   -1.270411  -4.928973  11.250194
C   -1.401677  -5.528064   9.976687
C   -2.655417  -5.959676   9.507532
H   -4.763679  -6.172210  10.054565
H   -2.328269  -4.328543  13.041275
H   -0.546864  -5.597417   9.317945
N   -2.713089  -6.365398   8.150075
H   -1.876619  -6.171732   7.615014
C   -4.912190  -5.106721  12.484953
C    0.022759  -4.350163  11.692753
O    0.132163  -3.574362  12.643564
F   -5.633453  -4.111947  11.972713
F   -4.615201  -4.813753  13.750203
F   -5.644076  -6.219269  12.469471
O    1.045510  -4.730990  10.911266
C    2.266611  -4.010190  10.912830
H    3.076695  -4.679504  10.622704
H    2.508036  -3.629609  11.906553
C    2.132434  -2.866547   9.898608
H    1.306101  -2.225180  10.207262
H    3.021259  -2.235782   9.936443
C    1.923223  -3.374813   8.455446
H    1.490515  -4.375621   8.455728
H    2.898773  -3.502179   7.987226
C    1.029424  -2.472396   7.583362
H    1.066946  -2.848919   6.560426
C    1.431628  -0.989630   7.540016
O    0.804554  -0.190869   8.244099
C    2.907360   0.793744   6.687826
C    3.259463  -1.441007   5.873666
C    4.223532   0.766470   5.910125
H    2.157953   1.385162   6.159267
H    3.039735   1.229708   7.679778
C    4.116055  -0.481780   5.045430
H    3.898906  -2.085100   6.477805
H    2.654160  -2.071633   5.221684
H    5.058022   0.659847   6.605008
H    4.390178   1.673598   5.327807
H    5.088392  -0.901005   4.783456
H    3.599269  -0.238163   4.115752
N    2.453768  -0.594326   6.754513

1 2 2.0 3 1.0 14 1.0 
2 
3 4 1.0 
4 
5 6 1.5 10 1.5 11 1.0 
6 7 1.5 16 1.0 
7 8 1.5 12 1.0 
8 9 1.5 17 1.0 
9 10 1.5 13 1.0 
10 14 1.0 
11 
12 
13 
14 15 1.0 
15 
16 19 1.0 20 1.0 21 1.0 
17 18 2.0 22 1.0 
18 
19 
20 
21 
22 23 1.0 
23 24 1.0 25 1.0 26 1.0 
24 
25 
26 27 1.0 28 1.0 29 1.0 
27 
28 
29 30 1.0 31 1.0 32 1.0 
30 
31 
32 33 1.0 34 1.0 51 1.0 
33 
34 35 2.0 48 1.0 
35 
36 38 1.0 39 1.0 40 1.0 48 1.0 
37 41 1.0 42 1.0 43 1.0 48 1.0 
38 41 1.0 44 1.0 45 1.0 
39 
40 
41 46 1.0 47 1.0 
42 
43 
44 
45 
46 
47 
48 
49 50 2.0 51 1.0 62 1.0 
50 
51 52 1.0 
52 
53 54 1.5 58 1.5 59 1.0 
54 55 1.5 64 1.0 
55 56 1.5 60 1.0 
56 57 1.5 65 1.0 
57 58 1.5 61 1.0 
58 62 1.0 
59 
60 
61 
62 63 1.0 
63 
64 67 1.0 68 1.0 69 1.0 
65 66 2.0 70 1.0 
66 
67 
68 
69 
70 71 1.0 
71 72 1.0 73 1.0 74 1.0 
72 
73 
74 75 1.0 76 1.0 77 1.0 
75 
76 
77 78 1.0 79 1.0 80 1.0 
78 
79 
80 81 1.0 82 1.0 
81 
82 83 2.0 96 1.0 
83 
84 86 1.0 87 1.0 88 1.0 96 1.0 
85 89 1.0 90 1.0 91 1.0 96 1.0 
86 89 1.0 92 1.0 93 1.0 
87 
88 
89 94 1.0 95 1.0 
90 
91 
92 
93 
94 
95 
96 


