%mem=1GB
%nprocshared=12
#p geom=connect #p opt b3lyp m06-2x geom=connect scrf=(solvent=benzene) freq

00009

0 1
C   -1.245556  -3.365774   7.543551
O   -1.006997  -4.291512   6.763016
N   -0.300607  -2.612380   8.092254
H   -0.566110  -1.848581   8.698457
C   -4.829020  -3.601832   8.053528
C   -6.005471  -4.088656   7.444665
C   -6.045738  -4.260180   6.043974
C   -4.911964  -3.963000   5.253219
C   -3.738181  -3.497416   5.878187
C   -3.677132  -3.358463   7.281418
H   -4.797386  -3.493936   9.127775
H   -6.943865  -4.649477   5.586254
H   -2.862684  -3.304324   5.272632
N   -2.473535  -3.020335   7.940940
H   -2.554819  -2.405684   8.736098
C   -7.192680  -4.482856   8.303934
C   -4.867615  -4.233070   3.797080
O   -4.037616  -3.726121   3.040699
F   -6.783129  -4.929008   9.489985
F   -7.905830  -5.444810   7.719629
F   -7.972687  -3.422091   8.491335
O   -5.738742  -5.192068   3.427580
C   -5.497101  -5.942337   2.243904
H   -6.429252  -6.021565   1.684281
H   -4.792187  -5.440926   1.579282
C   -4.975582  -7.354913   2.583302
H   -4.576604  -7.787224   1.665084
H   -5.810410  -7.998262   2.859869
C   -3.883167  -7.400496   3.675754
H   -3.229099  -6.534980   3.567354
H   -3.234466  -8.259181   3.492896
C   -4.469916  -7.489028   5.105865
H   -5.343345  -6.851561   5.185236
C   -4.834777  -8.945738   5.459864
O   -3.921991  -9.768453   5.568027
C   -6.548637 -10.631003   6.017987
C   -7.280178  -8.381069   5.598675
C   -8.004122 -10.505305   6.470126
H   -5.923893 -11.056029   6.805841
H   -6.468609 -11.275952   5.141603
C   -8.514615  -9.271223   5.739737
H   -7.325084  -7.805121   4.673779
H   -7.220432  -7.681675   6.434125
H   -8.592540 -11.398824   6.257942
H   -8.038665 -10.332438   7.546998
H   -8.876770  -9.555677   4.750569
H   -9.333827  -8.777066   6.263684
N   -6.127161  -9.281079   5.650344
C   -3.777859  -6.838281   7.370693
O   -4.875425  -7.115077   7.854564
N   -3.516704  -6.948544   6.067652
H   -2.597325  -6.712557   5.729571
C   -3.734317  -5.966702  10.316096
C   -3.573535  -5.465949  11.622244
C   -2.296526  -5.053352  12.055270
C   -1.179526  -5.158847  11.197561
C   -1.356850  -5.679822   9.895402
C   -2.632776  -6.049483   9.432639
H   -4.734550  -6.228870  10.014383
H   -2.179913  -4.633328  13.044454
H   -0.519459  -5.735391   9.213385
N   -2.732104  -6.380409   8.057681
H   -1.907398  -6.168985   7.510985
C   -4.796517  -5.302603  12.506774
C    0.138373  -4.639007  11.640260
O    0.290856  -3.926759  12.633882
F   -4.461528  -5.114043  13.782334
F   -5.485880  -4.245236  12.083957
F   -5.574538  -6.380784  12.429488
O    1.131042  -4.991547  10.808461
C    2.365716  -4.294312  10.817569
H    3.154063  -4.959275  10.464405
H    2.642376  -3.978754  11.824796
C    2.225399  -3.089251   9.877877
H    1.419437  -2.453753  10.246723
H    3.126456  -2.477017   9.928612
C    1.968442  -3.506126   8.413475
H    1.511205  -4.494845   8.366493
H    2.928770  -3.628503   7.913596
C    1.076225  -2.533035   7.619177
H    1.081573  -2.847956   6.574935
C    1.511055  -1.059268   7.653172
O    0.915339  -0.289148   8.414085
C    3.009679   0.738660   6.874728
C    3.296673  -1.452385   5.927248
C    4.308839   0.729053   6.068501
H    3.171776   1.113529   7.887024
H    2.262951   1.375259   6.397338
C    4.156568  -0.464923   5.136508
H    2.665383  -2.033002   5.253815
H    3.934571  -2.142105   6.480490
H    4.483337   1.664538   5.535424
H    5.154793   0.565476   6.737986
H    5.113989  -0.888201   4.829909
H    3.626112  -0.157762   4.233740
N    2.526932  -0.641170   6.871347

1 2 2.0 3 1.0 14 1.0 
2 
3 4 1.0 
4 
5 6 1.5 10 1.5 11 1.0 
6 7 1.5 16 1.0 
7 8 1.5 12 1.0 
8 9 1.5 17 1.0 
9 10 1.5 13 1.0 
10 14 1.0 
11 
12 
13 
14 15 1.0 
15 
16 19 1.0 20 1.0 21 1.0 
17 18 2.0 22 1.0 
18 
19 
20 
21 
22 23 1.0 
23 24 1.0 25 1.0 26 1.0 
24 
25 
26 27 1.0 28 1.0 29 1.0 
27 
28 
29 30 1.0 31 1.0 32 1.0 
30 
31 
32 33 1.0 34 1.0 51 1.0 
33 
34 35 2.0 48 1.0 
35 
36 38 1.0 39 1.0 40 1.0 48 1.0 
37 41 1.0 42 1.0 43 1.0 48 1.0 
38 41 1.0 44 1.0 45 1.0 
39 
40 
41 46 1.0 47 1.0 
42 
43 
44 
45 
46 
47 
48 
49 50 2.0 51 1.0 62 1.0 
50 
51 52 1.0 
52 
53 54 1.5 58 1.5 59 1.0 
54 55 1.5 64 1.0 
55 56 1.5 60 1.0 
56 57 1.5 65 1.0 
57 58 1.5 61 1.0 
58 62 1.0 
59 
60 
61 
62 63 1.0 
63 
64 67 1.0 68 1.0 69 1.0 
65 66 2.0 70 1.0 
66 
67 
68 
69 
70 71 1.0 
71 72 1.0 73 1.0 74 1.0 
72 
73 
74 75 1.0 76 1.0 77 1.0 
75 
76 
77 78 1.0 79 1.0 80 1.0 
78 
79 
80 81 1.0 82 1.0 
81 
82 83 2.0 96 1.0 
83 
84 86 1.0 87 1.0 88 1.0 96 1.0 
85 89 1.0 90 1.0 91 1.0 96 1.0 
86 89 1.0 92 1.0 93 1.0 
87 
88 
89 94 1.0 95 1.0 
90 
91 
92 
93 
94 
95 
96 


