%mem=1GB
%nprocshared=12
#p geom=connect #p opt b3lyp m06-2x geom=connect scrf=(solvent=benzene) freq

00023

0 1
C   -0.858777  -2.416413   7.164673
O   -0.556219  -2.196109   5.993677
N   -0.038389  -2.220097   8.185649
H   -0.338809  -2.476806   9.115814
C   -4.457100  -2.920959   7.537179
C   -5.667709  -3.261484   6.901734
C   -5.643041  -3.721361   5.569967
C   -4.417796  -3.892525   4.890006
C   -3.207913  -3.547646   5.534279
C   -3.229509  -3.052325   6.857765
H   -4.479440  -2.589745   8.565162
H   -6.570787  -4.010857   5.096525
H   -2.269634  -3.707297   5.021669
N   -2.062174  -2.775430   7.598680
H   -2.188866  -2.740352   8.597819
C   -6.977816  -3.215348   7.666397
C   -4.430926  -4.536864   3.557871
O   -5.393623  -4.498504   2.790515
F   -6.925325  -2.333578   8.663744
F   -7.983130  -2.882664   6.858887
F   -7.220283  -4.421798   8.172958
O   -3.331491  -5.282308   3.362185
C   -3.288220  -6.246131   2.322572
H   -4.247704  -6.376199   1.819782
H   -2.584241  -5.894102   1.568199
C   -2.813661  -7.593762   2.889666
H   -1.883959  -7.455496   3.441736
H   -2.547218  -8.225111   2.041366
C   -3.853521  -8.371166   3.732067
H   -3.441858  -9.362333   3.931832
H   -4.741730  -8.545820   3.122658
C   -4.283937  -7.716112   5.064815
H   -4.825616  -6.801642   4.864470
C   -5.154034  -8.689836   5.885303
O   -4.645538  -9.744127   6.275136
C   -7.295894  -9.197091   7.005723
C   -7.119110  -7.127726   5.801909
C   -8.471783  -8.304605   7.405516
H   -6.775370  -9.583495   7.884037
H   -7.637219 -10.049077   6.415849
C   -8.562082  -7.284018   6.280214
H   -7.083084  -6.939049   4.727714
H   -6.641829  -6.293491   6.316803
H   -9.397934  -8.862466   7.549187
H   -8.241856  -7.794455   8.342427
H   -9.176253  -7.683504   5.471707
H   -9.005300  -6.339632   6.599301
N   -6.431100  -8.363709   6.174028
C   -3.076151  -6.683266   6.955383
O   -4.095222  -6.219893   7.466088
N   -3.088856  -7.382205   5.823152
H   -2.226017  -7.766245   5.476575
C   -2.170976  -5.102919   9.441018
C   -1.586472  -4.343596  10.473674
C   -0.209257  -4.470682  10.739841
C    0.591789  -5.306052   9.935829
C    0.006917  -6.021369   8.870129
C   -1.369081  -5.907065   8.599633
H   -3.222329  -4.961895   9.250536
H    0.242797  -3.880850  11.525500
H    0.635312  -6.639982   8.243372
N   -1.836262  -6.556427   7.433158
H   -1.119616  -7.012270   6.891762
C   -2.402511  -3.272358  11.164493
C    2.046432  -5.414908  10.201723
O    2.487774  -5.754929  11.297292
F   -1.988349  -3.064770  12.412031
F   -2.240353  -2.156291  10.456060
F   -3.698131  -3.577857  11.176424
O    2.870224  -5.137005   9.159797
C    2.509970  -4.262049   8.094771
H    1.444557  -4.241880   7.888932
H    2.978628  -4.617216   7.176911
C    3.030642  -2.858294   8.425472
H    2.943614  -2.659370   9.493284
H    4.101484  -2.842545   8.219715
C    2.343873  -1.742010   7.621843
H    2.207073  -2.058830   6.586942
H    3.038391  -0.903822   7.568748
C    1.008870  -1.217400   8.201620
H    0.674117  -0.406397   7.552105
C    1.054200  -0.659966   9.631768
O    0.762043  -1.416993  10.564164
C    1.448814   1.224976  11.172167
C    1.737237   1.613760   8.816843
C    1.608409   2.729297  10.947456
H    2.309220   0.820354  11.707638
H    0.554725   1.002074  11.757445
C    2.263090   2.832440   9.576619
H    0.836176   1.875861   8.259907
H    2.480533   1.248859   8.108088
H    0.625420   3.202165  10.920109
H    2.188645   3.215412  11.732801
H    2.043207   3.773812   9.071364
H    3.346576   2.758735   9.683031
N    1.396545   0.625653   9.840171

1 2 2.0 3 1.0 14 1.0 
2 
3 4 1.0 
4 
5 6 1.5 10 1.5 11 1.0 
6 7 1.5 16 1.0 
7 8 1.5 12 1.0 
8 9 1.5 17 1.0 
9 10 1.5 13 1.0 
10 14 1.0 
11 
12 
13 
14 15 1.0 
15 
16 19 1.0 20 1.0 21 1.0 
17 18 2.0 22 1.0 
18 
19 
20 
21 
22 23 1.0 
23 24 1.0 25 1.0 26 1.0 
24 
25 
26 27 1.0 28 1.0 29 1.0 
27 
28 
29 30 1.0 31 1.0 32 1.0 
30 
31 
32 33 1.0 34 1.0 51 1.0 
33 
34 35 2.0 48 1.0 
35 
36 38 1.0 39 1.0 40 1.0 48 1.0 
37 41 1.0 42 1.0 43 1.0 48 1.0 
38 41 1.0 44 1.0 45 1.0 
39 
40 
41 46 1.0 47 1.0 
42 
43 
44 
45 
46 
47 
48 
49 50 2.0 51 1.0 62 1.0 
50 
51 52 1.0 
52 
53 54 1.5 58 1.5 59 1.0 
54 55 1.5 64 1.0 
55 56 1.5 60 1.0 
56 57 1.5 65 1.0 
57 58 1.5 61 1.0 
58 62 1.0 
59 
60 
61 
62 63 1.0 
63 
64 67 1.0 68 1.0 69 1.0 
65 66 2.0 70 1.0 
66 
67 
68 
69 
70 71 1.0 
71 72 1.0 73 1.0 74 1.0 
72 
73 
74 75 1.0 76 1.0 77 1.0 
75 
76 
77 78 1.0 79 1.0 80 1.0 
78 
79 
80 81 1.0 82 1.0 
81 
82 83 2.0 96 1.0 
83 
84 86 1.0 87 1.0 88 1.0 96 1.0 
85 89 1.0 90 1.0 91 1.0 96 1.0 
86 89 1.0 92 1.0 93 1.0 
87 
88 
89 94 1.0 95 1.0 
90 
91 
92 
93 
94 
95 
96 


