%mem=1GB
%nprocshared=12
#p geom=connect #p opt b3lyp m06-2x geom=connect scrf=(solvent=benzene) freq

00017

0 1
O   -4.269919  -1.169184  -4.799609
C   -4.512880  -2.521301  -5.181360
H   -3.841944  -2.743894  -6.011176
H   -5.525130  -2.601232  -5.579697
C   -4.304960  -3.576764  -4.075544
H   -5.146123  -3.537513  -3.384209
H   -4.359824  -4.567955  -4.526399
C   -2.984916  -3.447364  -3.291261
H   -2.144379  -3.592977  -3.970936
H   -2.876787  -2.434264  -2.906030
C   -2.898397  -4.472093  -2.136174
H   -2.934268  -5.460679  -2.594584
C   -1.579523  -4.373930  -1.323336
O   -0.915839  -3.333484  -1.360062
C   -0.010792  -5.426385   0.271451
C   -1.939008  -6.682879  -0.414420
C    0.154061  -6.862283   0.765271
H   -0.186168  -4.757545   1.112616
H    0.872035  -5.076517  -0.266630
C   -1.262497  -7.420175   0.742867
H   -1.851112  -7.258997  -1.336786
H   -2.999545  -6.525555  -0.211019
H    0.781116  -7.420946   0.068765
H    0.618659  -6.918758   1.750668
H   -1.289685  -8.504493   0.627932
H   -1.766560  -7.173244   1.678677
N   -1.208108  -5.424681  -0.563045
O   -4.063289  -4.361545  -1.297178
C   -4.065149  -3.292690  -0.359918
H   -3.652452  -2.405358  -0.833424
H   -3.434912  -3.567199   0.486098
C   -5.478412  -2.980508   0.137258
H   -6.076355  -2.589253  -0.686481
H   -5.952826  -3.916061   0.434862
C   -5.526179  -2.010999   1.339555
H   -5.012044  -2.444797   2.196556
H   -6.568317  -1.949053   1.656602
C   -5.039736  -0.568758   1.049860
H   -5.547088  -0.300437   0.128505
C   -5.382417   0.458042   2.138055
O   -4.961694   0.265971   3.279492
C   -6.354669   2.639118   2.770561
C   -6.644084   1.913485   0.519462
C   -6.513503   3.888069   1.910289
H   -7.285377   2.413642   3.293149
H   -5.584866   2.760811   3.529860
C   -7.136048   3.358080   0.626830
H   -7.459437   1.239656   0.251458
H   -5.892807   1.839006  -0.254356
H   -7.122286   4.655026   2.390744
H   -5.536620   4.324783   1.702242
H   -8.223478   3.367486   0.716186
H   -6.873852   3.958244  -0.245461
N   -6.088746   1.562897   1.824138
C   -2.571689  -1.008635   1.365087
O   -2.639462  -1.804951   2.297845
N   -3.616949  -0.447924   0.759490
H   -3.376984   0.221186   0.041157
C    0.292939  -2.068405   1.756074
C    1.637974  -2.491603   1.752092
C    2.570858  -1.840085   0.921002
C    2.184185  -0.744765   0.118298
C    0.831525  -0.333938   0.127089
C   -0.119659  -1.000915   0.927424
H   -0.403474  -2.586352   2.395279
H    3.600860  -2.168253   0.936939
H    0.519438   0.500591  -0.487200
N   -1.449060  -0.538906   0.833359
H   -1.577210   0.244784   0.191642
C    2.102240  -3.628689   2.641671
C    3.221268  -0.023490  -0.664735
O    4.322702  -0.504929  -0.934427
F    2.677296  -4.570063   1.897537
F    2.994730  -3.158990   3.509787
F    1.098451  -4.181520   3.319589
O    2.862840   1.242913  -0.947404
C    3.826036   2.183194  -1.406169
H    3.693353   2.303919  -2.481557
H    4.850205   1.840136  -1.251684
C    3.629653   3.538023  -0.698366
H    4.207331   4.284250  -1.244309
H    2.588927   3.850657  -0.791124
C    4.073844   3.591511   0.783843
H    4.002856   4.623475   1.128847
H    5.130417   3.330658   0.856533
C    3.259019   2.678091   1.725500
H    3.483159   1.654724   1.444139
C    3.639030   2.759963   3.221511
O    4.309826   3.711232   3.629237
C    3.477210   1.766301   5.484206
C    2.422471   0.608052   3.662758
C    3.047597   0.381003   5.971014
H    2.887605   2.546769   5.967837
H    4.529747   1.957660   5.700792
C    1.986404  -0.051049   4.970240
H    1.563041   0.847454   3.036786
H    3.070561  -0.066177   3.102367
H    3.895315  -0.304413   5.923545
H    2.683318   0.387863   6.999105
H    1.890973  -1.134363   4.890292
H    1.019536   0.343686   5.279797
N    3.199768   1.786748   4.049745
O    1.859231   2.885555   1.519893
C    1.264057   4.077527   2.030670
H    1.664194   4.962352   1.534703
H    1.435119   4.194781   3.100993
C   -0.242932   3.961820   1.796010
H   -0.754178   4.758641   2.337394
H   -0.456551   4.115578   0.738035
C   -0.757147   2.580863   2.233965
H   -0.294386   2.331104   3.187657
H   -0.379655   1.834797   1.539036
C   -2.282507   2.433555   2.357919
H   -2.530387   1.385204   2.388315
C   -2.832216   3.027673   3.649245
O   -3.344142   4.150738   3.612154
C   -3.228768   2.807262   6.070474
C   -2.156623   0.974707   4.942471
C   -2.668572   1.853253   7.125506
H   -4.319717   2.781947   6.066002
H   -2.917007   3.836421   6.257823
C   -2.474840   0.544169   6.374226
H   -1.079518   1.033060   4.803367
H   -2.547694   0.242263   4.237321
H   -1.702663   2.220207   7.476156
H   -3.320992   1.751907   7.993663
H   -1.697510  -0.085277   6.809317
H   -3.406386  -0.024336   6.383569
N   -2.743350   2.309278   4.786508
C   -2.900677   2.586402  -0.031655
O   -2.118326   1.715231  -0.408784
N   -2.990826   2.998392   1.223073
H   -3.640982   3.731756   1.469741
C   -3.949036   3.575276  -3.254892
C   -4.152276   3.086029  -4.565590
C   -4.449593   1.717403  -4.763687
C   -4.577394   0.849236  -3.657213
C   -4.358496   1.344962  -2.362553
C   -4.022606   2.699153  -2.154600
H   -3.702396   4.616934  -3.109493
H   -4.604282   1.341595  -5.765124
H   -4.434993   0.661953  -1.533580
N   -3.769182   3.169607  -0.847789
H   -4.269064   3.988497  -0.535655
C   -4.028853   4.027534  -5.752293
C   -4.954269  -0.570203  -3.808475
O   -5.761993  -1.126797  -3.063622
F   -4.734497   3.586890  -6.793188
F   -2.749952   4.115199  -6.109506
F   -4.469035   5.244324  -5.434755

1 2 1.0 
2 3 1.0 4 1.0 5 1.0 
3 
4 
5 6 1.0 7 1.0 8 1.0 
6 
7 
8 9 1.0 10 1.0 11 1.0 
9 
10 
11 12 1.0 13 1.0 28 1.0 
12 
13 14 2.0 27 1.0 
14 
15 17 1.0 18 1.0 19 1.0 27 1.0 
16 20 1.0 21 1.0 22 1.0 27 1.0 
17 20 1.0 23 1.0 24 1.0 
18 
19 
20 25 1.0 26 1.0 
21 
22 
23 
24 
25 
26 
27 
28 29 1.0 
29 30 1.0 31 1.0 32 1.0 
30 
31 
32 33 1.0 34 1.0 35 1.0 
33 
34 
35 36 1.0 37 1.0 38 1.0 
36 
37 
38 39 1.0 40 1.0 57 1.0 
39 
40 41 2.0 54 1.0 
41 
42 44 1.0 45 1.0 46 1.0 54 1.0 
43 47 1.0 48 1.0 49 1.0 54 1.0 
44 47 1.0 50 1.0 51 1.0 
45 
46 
47 52 1.0 53 1.0 
48 
49 
50 
51 
52 
53 
54 
55 56 2.0 57 1.0 68 1.0 
56 
57 58 1.0 
58 
59 60 1.5 64 1.5 65 1.0 
60 61 1.5 70 1.0 
61 62 1.5 66 1.0 
62 63 1.5 71 1.0 
63 64 1.5 67 1.0 
64 68 1.0 
65 
66 
67 
68 69 1.0 
69 
70 73 1.0 74 1.0 75 1.0 
71 72 2.0 76 1.0 
72 
73 
74 
75 
76 77 1.0 
77 78 1.0 79 1.0 80 1.0 
78 
79 
80 81 1.0 82 1.0 83 1.0 
81 
82 
83 84 1.0 85 1.0 86 1.0 
84 
85 
86 87 1.0 88 1.0 103 1.0 
87 
88 89 2.0 102 1.0 
89 
90 92 1.0 93 1.0 94 1.0 102 1.0 
91 95 1.0 96 1.0 97 1.0 102 1.0 
92 95 1.0 98 1.0 99 1.0 
93 
94 
95 100 1.0 101 1.0 
96 
97 
98 
99 
100 
101 
102 
103 104 1.0 
104 105 1.0 106 1.0 107 1.0 
105 
106 
107 108 1.0 109 1.0 110 1.0 
108 
109 
110 111 1.0 112 1.0 113 1.0 
111 
112 
113 114 1.0 115 1.0 132 1.0 
114 
115 116 2.0 129 1.0 
116 
117 119 1.0 120 1.0 121 1.0 129 1.0 
118 122 1.0 123 1.0 124 1.0 129 1.0 
119 122 1.0 125 1.0 126 1.0 
120 
121 
122 127 1.0 128 1.0 
123 
124 
125 
126 
127 
128 
129 
130 131 2.0 132 1.0 143 1.0 
131 
132 133 1.0 
133 
134 135 1.5 139 1.5 140 1.0 
135 136 1.5 145 1.0 
136 137 1.5 141 1.0 
137 138 1.5 146 1.0 
138 139 1.5 142 1.0 
139 143 1.0 
140 
141 
142 
143 144 1.0 
144 
145 148 1.0 149 1.0 150 1.0 
146 147 2.0 
147 
148 
149 
150 


