%mem=1GB
%nprocshared=12
#p geom=connect #p opt b3lyp m06-2x geom=connect scrf=(solvent=benzene) freq

00023

0 1
O   -4.596837  -1.145068  -4.534686
C   -5.770700  -1.858473  -4.899981
H   -5.581961  -2.364493  -5.846911
H   -6.606422  -1.178792  -5.074136
C   -6.127227  -2.895084  -3.821437
H   -6.370206  -2.377331  -2.893182
H   -7.034968  -3.421451  -4.117416
C   -4.998406  -3.916215  -3.580084
H   -4.798499  -4.453063  -4.508330
H   -4.071054  -3.390068  -3.351113
C   -5.318248  -4.943877  -2.467005
H   -6.151808  -5.547177  -2.827544
C   -4.140798  -5.906667  -2.172652
O   -3.003765  -5.615199  -2.553793
C   -3.351219  -8.031422  -1.180569
C   -5.684581  -7.482040  -0.977479
C   -4.090320  -9.257730  -0.642976
H   -2.690013  -7.613436  -0.419719
H   -2.743712  -8.280710  -2.052454
C   -5.393318  -8.694570  -0.091325
H   -6.327937  -7.765687  -1.811755
H   -6.188763  -6.697674  -0.410991
H   -4.306569  -9.943978  -1.463262
H   -3.514303  -9.805037   0.104274
H   -6.204484  -9.423780  -0.091477
H   -5.242332  -8.367151   0.938565
N   -4.387044  -7.049351  -1.497163
O   -5.773272  -4.302132  -1.266680
C   -4.850261  -3.465549  -0.575997
H   -4.426084  -2.753772  -1.276252
H   -4.030783  -4.035125  -0.135727
C   -5.638170  -2.724693   0.508686
H   -6.541415  -2.328483   0.057443
H   -5.984262  -3.455471   1.240388
C   -4.855259  -1.620432   1.247816
H   -4.025387  -2.114871   1.753046
H   -5.481513  -1.222956   2.047966
C   -4.334044  -0.452137   0.368946
H   -4.483813  -0.682360  -0.684629
C   -4.975977   0.934101   0.563554
O   -4.301567   1.839173   1.063838
C   -6.761839   2.535101   0.015574
C   -7.170586   0.217802  -0.427716
C   -7.856623   2.454755  -1.045549
H   -7.176632   2.814695   0.985164
H   -6.009815   3.278555  -0.255634
C   -8.364337   1.023739  -0.945574
H   -7.505615  -0.448391   0.366285
H   -6.727751  -0.375541  -1.226638
H   -8.642879   3.196894  -0.902011
H   -7.420571   2.617644  -2.032749
H   -9.182056   0.974328  -0.224875
H   -8.740821   0.647896  -1.897942
N   -6.216508   1.183522   0.107221
C   -1.942175  -0.981094  -0.023301
O   -2.142524  -1.924537  -0.782620
N   -2.905020  -0.288887   0.565089
H   -2.670576   0.510214   1.133168
C    0.840425  -2.066062  -0.822264
C    2.175843  -2.354406  -1.181793
C    3.219521  -1.517802  -0.728626
C    2.940156  -0.394958   0.080280
C    1.597149  -0.106297   0.400058
C    0.544853  -0.918464  -0.053054
H    0.060794  -2.712772  -1.192228
H    4.237438  -1.740739  -1.016141
H    1.368590   0.772323   0.982852
N   -0.753216  -0.478907   0.291318
H   -0.769060   0.339601   0.876026
C    2.494296  -3.517882  -2.103381
C    4.031103   0.496294   0.554450
O    5.171241   0.499720   0.088506
F    1.451165  -4.330490  -2.261597
F    3.509404  -4.225646  -1.611166
F    2.843593  -3.039599  -3.295165
O    3.620847   1.290164   1.555409
C    4.427827   2.344872   2.039023
H    4.444862   3.135933   1.288261
H    5.456598   2.023185   2.208172
C    3.790025   2.842325   3.343434
H    2.716203   2.662861   3.307375
H    4.155308   2.247408   4.180924
C    4.029026   4.338811   3.599149
H    3.738748   4.908282   2.715835
H    5.097675   4.515142   3.729962
C    3.262902   4.857717   4.838019
H    3.592703   4.256148   5.685544
C    3.566776   6.336814   5.182899
O    4.098706   7.060633   4.336789
C    3.485523   8.178833   6.832638
C    2.581504   6.042368   7.470531
C    3.189246   8.208803   8.332825
H    2.811905   8.845471   6.291741
H    4.509354   8.492294   6.620733
C    2.201802   7.068015   8.540156
H    1.701242   5.502623   7.118154
H    3.287123   5.314569   7.874043
H    4.104557   8.006371   8.891224
H    2.802045   9.171661   8.668558
H    2.233436   6.657776   9.550335
H    1.187027   7.426274   8.359731
N    3.233836   6.803710   6.404839
O    1.853798   4.628468   4.693117
C    1.130879   5.403343   3.734451
H    1.771697   6.059088   3.144035
H    0.421689   6.045279   4.258211
C    0.396977   4.446114   2.790065
H   -0.117558   5.022082   2.020290
H    1.137309   3.847180   2.261910
C   -0.614502   3.533331   3.507683
H   -1.508176   4.104245   3.764668
H   -0.190841   3.206144   4.458344
C   -0.979151   2.271078   2.705541
H   -0.050275   1.755412   2.482628
C   -1.962309   1.354398   3.434170
O   -3.064692   1.819215   3.730846
C   -2.663908  -0.867478   4.180473
C   -0.384730  -0.623168   3.511267
C   -2.013469  -2.252033   4.192446
H   -3.545360  -0.847454   3.542805
H   -2.986831  -0.578702   5.182170
C   -0.742178  -2.099623   3.371505
H    0.202267  -0.463297   4.416953
H    0.227452  -0.297547   2.681686
H   -1.757575  -2.525871   5.217106
H   -2.671835  -3.028381   3.800418
H    0.058653  -2.758036   3.710301
H   -0.947061  -2.347575   2.330676
N   -1.660935   0.064879   3.675618
C   -1.110443   2.698102   0.272689
O    0.103472   2.708973   0.087365
N   -1.660699   2.617516   1.473690
H   -2.676537   2.604299   1.540743
C   -0.817125   1.302142  -2.375032
C   -0.881777   0.287247  -3.349600
C   -2.135372  -0.134148  -3.832588
C   -3.328923   0.449801  -3.348463
C   -3.247200   1.464837  -2.371607
C   -2.003785   1.850288  -1.836676
H    0.154105   1.582027  -1.999598
H   -2.160766  -0.933592  -4.559202
H   -4.158332   1.891615  -1.975970
N   -2.034834   2.667478  -0.684515
H   -2.967975   2.881199  -0.360420
C    0.377595  -0.414393  -3.822066
C   -4.667127  -0.037925  -3.774464
O   -5.723775   0.491735  -3.428019
F    0.614602  -0.105250  -5.093523
F    0.206655  -1.729512  -3.723439
F    1.439843  -0.079362  -3.092480

1 2 1.0 
2 3 1.0 4 1.0 5 1.0 
3 
4 
5 6 1.0 7 1.0 8 1.0 
6 
7 
8 9 1.0 10 1.0 11 1.0 
9 
10 
11 12 1.0 13 1.0 28 1.0 
12 
13 14 2.0 27 1.0 
14 
15 17 1.0 18 1.0 19 1.0 27 1.0 
16 20 1.0 21 1.0 22 1.0 27 1.0 
17 20 1.0 23 1.0 24 1.0 
18 
19 
20 25 1.0 26 1.0 
21 
22 
23 
24 
25 
26 
27 
28 29 1.0 
29 30 1.0 31 1.0 32 1.0 
30 
31 
32 33 1.0 34 1.0 35 1.0 
33 
34 
35 36 1.0 37 1.0 38 1.0 
36 
37 
38 39 1.0 40 1.0 57 1.0 
39 
40 41 2.0 54 1.0 
41 
42 44 1.0 45 1.0 46 1.0 54 1.0 
43 47 1.0 48 1.0 49 1.0 54 1.0 
44 47 1.0 50 1.0 51 1.0 
45 
46 
47 52 1.0 53 1.0 
48 
49 
50 
51 
52 
53 
54 
55 56 2.0 57 1.0 68 1.0 
56 
57 58 1.0 
58 
59 60 1.5 64 1.5 65 1.0 
60 61 1.5 70 1.0 
61 62 1.5 66 1.0 
62 63 1.5 71 1.0 
63 64 1.5 67 1.0 
64 68 1.0 
65 
66 
67 
68 69 1.0 
69 
70 73 1.0 74 1.0 75 1.0 
71 72 2.0 76 1.0 
72 
73 
74 
75 
76 77 1.0 
77 78 1.0 79 1.0 80 1.0 
78 
79 
80 81 1.0 82 1.0 83 1.0 
81 
82 
83 84 1.0 85 1.0 86 1.0 
84 
85 
86 87 1.0 88 1.0 103 1.0 
87 
88 89 2.0 102 1.0 
89 
90 92 1.0 93 1.0 94 1.0 102 1.0 
91 95 1.0 96 1.0 97 1.0 102 1.0 
92 95 1.0 98 1.0 99 1.0 
93 
94 
95 100 1.0 101 1.0 
96 
97 
98 
99 
100 
101 
102 
103 104 1.0 
104 105 1.0 106 1.0 107 1.0 
105 
106 
107 108 1.0 109 1.0 110 1.0 
108 
109 
110 111 1.0 112 1.0 113 1.0 
111 
112 
113 114 1.0 115 1.0 132 1.0 
114 
115 116 2.0 129 1.0 
116 
117 119 1.0 120 1.0 121 1.0 129 1.0 
118 122 1.0 123 1.0 124 1.0 129 1.0 
119 122 1.0 125 1.0 126 1.0 
120 
121 
122 127 1.0 128 1.0 
123 
124 
125 
126 
127 
128 
129 
130 131 2.0 132 1.0 143 1.0 
131 
132 133 1.0 
133 
134 135 1.5 139 1.5 140 1.0 
135 136 1.5 145 1.0 
136 137 1.5 141 1.0 
137 138 1.5 146 1.0 
138 139 1.5 142 1.0 
139 143 1.0 
140 
141 
142 
143 144 1.0 
144 
145 148 1.0 149 1.0 150 1.0 
146 147 2.0 
147 
148 
149 
150 


