%mem=1GB
%nprocshared=12
#p geom=connect #p opt b3lyp m06-2x geom=connect scrf=(solvent=benzene) freq

00025

0 1
O   -4.779434  -1.692643  -4.858694
C   -5.891089  -2.443783  -5.331569
H   -5.587286  -2.990230  -6.224585
H   -6.709020  -1.785872  -5.629617
C   -6.349342  -3.430406  -4.244678
H   -6.676395  -2.860471  -3.374663
H   -7.230470  -3.974506  -4.585576
C   -5.246309  -4.433082  -3.850031
H   -5.228308  -5.246083  -4.577094
H   -4.265874  -3.965712  -3.931865
C   -5.423534  -5.010317  -2.426668
H   -6.379590  -5.534353  -2.409017
C   -4.323452  -6.031028  -2.040947
O   -3.280315  -6.079213  -2.698975
C   -3.545225  -7.820083  -0.520640
C   -5.704327  -6.841203  -0.110217
C   -4.254672  -8.648011   0.551858
H   -2.686762  -7.294785  -0.098712
H   -3.186077  -8.447271  -1.338545
C   -5.333301  -7.716236   1.088148
H   -6.544439  -7.275067  -0.654574
H   -5.991001  -5.839881   0.214280
H   -4.720675  -9.521070   0.092324
H   -3.576815  -9.004109   1.328677
H   -6.188564  -8.251232   1.502909
H   -4.916085  -7.092920   1.880720
N   -4.524637  -6.834855  -0.975657
O   -5.506750  -3.953859  -1.457170
C   -4.353990  -3.138995  -1.257725
H   -4.639569  -2.113645  -1.485196
H   -3.527154  -3.383062  -1.924996
C   -3.902682  -3.260843   0.201144
H   -4.709734  -2.962397   0.870925
H   -3.708457  -4.311495   0.418501
C   -2.623974  -2.464751   0.499473
H   -1.871309  -2.726421  -0.243817
H   -2.228980  -2.812525   1.455305
C   -2.824282  -0.931292   0.553328
H   -3.348179  -0.661356  -0.357273
C   -3.591648  -0.428107   1.778426
O   -3.130995  -0.666130   2.895913
C   -5.527234   0.760677   2.736928
C   -5.336074   0.681300   0.351148
C   -6.450919   1.827691   2.154126
H   -6.109764  -0.073725   3.130416
H   -4.924059   1.146780   3.556761
C   -6.636878   1.396664   0.707840
H   -5.534027  -0.167050  -0.305527
H   -4.669395   1.366453  -0.160954
H   -7.393701   1.910601   2.696251
H   -5.966240   2.803092   2.186831
H   -7.469396   0.694341   0.641444
H   -6.857279   2.232141   0.042098
N   -4.729339   0.274963   1.615951
C   -0.384280  -0.444076   0.916432
O   -0.087221  -1.436821   1.577336
N   -1.593063  -0.175546   0.438694
H   -1.670477   0.674125  -0.095492
C    2.361149  -0.922915  -0.167850
C    3.687288  -1.026177  -0.625723
C    4.502533   0.125827  -0.662127
C    3.992646   1.385325  -0.269767
C    2.636820   1.481107   0.125697
C    1.826819   0.331187   0.199455
H    1.761669  -1.821053  -0.145860
H    5.530149   0.038737  -0.985636
H    2.212731   2.438995   0.397743
N    0.477517   0.507012   0.572374
H    0.087850   1.415926   0.315204
C    4.201317  -2.381449  -1.074405
C    4.900026   2.567218  -0.249017
O    6.065225   2.539406  -0.649168
F    3.390425  -2.869273  -2.011641
F    5.433875  -2.309756  -1.575179
F    4.209478  -3.216614  -0.038193
O    4.330020   3.648160   0.304687
C    5.112741   4.786640   0.621393
H    5.431840   5.264770  -0.305648
H    6.014259   4.491847   1.160927
C    4.290644   5.774555   1.467739
H    4.854062   6.705764   1.531426
H    3.369762   6.026174   0.940945
C    3.973121   5.312844   2.910358
H    3.532864   6.153366   3.448068
H    4.903700   5.086577   3.432312
C    3.025011   4.093741   3.005482
H    3.547734   3.240610   2.579201
C    2.656065   3.672323   4.450146
O    2.807146   4.476871   5.373243
C    1.487751   2.065434   5.922842
C    1.983506   1.376302   3.680380
C    0.980042   0.633403   5.729080
H    0.662691   2.744283   6.142646
H    2.197868   2.129314   6.749002
C    0.893832   0.453931   4.219396
H    1.745072   1.728123   2.683361
H    2.936015   0.847831   3.621232
H    1.707260  -0.069758   6.137839
H    0.028273   0.450716   6.229670
H    1.028418  -0.583040   3.909228
H   -0.081858   0.780750   3.859394
N    2.105541   2.455467   4.657084
O    1.846350   4.323336   2.221252
C    0.923389   5.328319   2.652471
H    1.197472   6.292831   2.224056
H    0.900872   5.464847   3.733037
C   -0.474642   4.901617   2.191000
H   -1.218142   5.576525   2.615902
H   -0.538905   5.017283   1.110335
C   -0.756780   3.444257   2.605070
H   -0.541218   3.352330   3.667932
H   -0.029710   2.794029   2.131986
C   -2.154310   2.861662   2.313517
H   -2.124806   1.794501   2.508413
C   -3.204914   3.516101   3.219589
O   -3.929991   4.399045   2.750875
C   -4.327196   3.655459   5.407661
C   -2.553187   2.054258   5.163934
C   -4.032355   3.044611   6.778080
H   -5.319554   3.362317   5.060562
H   -4.292086   4.745878   5.439819
C   -3.306201   1.746623   6.456341
H   -1.560804   2.432764   5.402155
H   -2.439013   1.149743   4.569834
H   -3.369661   3.705219   7.339355
H   -4.931930   2.890801   7.375388
H   -2.647866   1.416487   7.260955
H   -4.033793   0.953593   6.275687
N   -3.325211   3.104991   4.498031
C   -1.901552   2.876262  -0.187786
O   -0.677832   2.799798  -0.227775
N   -2.598422   3.030104   0.931047
H   -3.589948   3.210359   0.860002
C   -1.315080   0.903086  -2.357660
C   -1.294647  -0.333436  -3.022714
C   -2.477045  -0.823027  -3.612255
C   -3.686860  -0.092086  -3.513513
C   -3.703660   1.110130  -2.772803
C   -2.534116   1.589811  -2.153274
H   -0.386357   1.240695  -1.929265
H   -2.447293  -1.782226  -4.109191
H   -4.639598   1.636002  -2.637774
N   -2.677254   2.670984  -1.248570
H   -3.620191   3.018535  -1.164415
C   -0.036489  -1.178192  -2.976718
C   -4.959104  -0.602556  -4.091562
O   -6.059305  -0.097737  -3.861163
F    0.074245  -1.939084  -4.063108
F   -0.114468  -1.960869  -1.905298
F    1.055595  -0.425329  -2.864319

1 2 1.0 
2 3 1.0 4 1.0 5 1.0 
3 
4 
5 6 1.0 7 1.0 8 1.0 
6 
7 
8 9 1.0 10 1.0 11 1.0 
9 
10 
11 12 1.0 13 1.0 28 1.0 
12 
13 14 2.0 27 1.0 
14 
15 17 1.0 18 1.0 19 1.0 27 1.0 
16 20 1.0 21 1.0 22 1.0 27 1.0 
17 20 1.0 23 1.0 24 1.0 
18 
19 
20 25 1.0 26 1.0 
21 
22 
23 
24 
25 
26 
27 
28 29 1.0 
29 30 1.0 31 1.0 32 1.0 
30 
31 
32 33 1.0 34 1.0 35 1.0 
33 
34 
35 36 1.0 37 1.0 38 1.0 
36 
37 
38 39 1.0 40 1.0 57 1.0 
39 
40 41 2.0 54 1.0 
41 
42 44 1.0 45 1.0 46 1.0 54 1.0 
43 47 1.0 48 1.0 49 1.0 54 1.0 
44 47 1.0 50 1.0 51 1.0 
45 
46 
47 52 1.0 53 1.0 
48 
49 
50 
51 
52 
53 
54 
55 56 2.0 57 1.0 68 1.0 
56 
57 58 1.0 
58 
59 60 1.5 64 1.5 65 1.0 
60 61 1.5 70 1.0 
61 62 1.5 66 1.0 
62 63 1.5 71 1.0 
63 64 1.5 67 1.0 
64 68 1.0 
65 
66 
67 
68 69 1.0 
69 
70 73 1.0 74 1.0 75 1.0 
71 72 2.0 76 1.0 
72 
73 
74 
75 
76 77 1.0 
77 78 1.0 79 1.0 80 1.0 
78 
79 
80 81 1.0 82 1.0 83 1.0 
81 
82 
83 84 1.0 85 1.0 86 1.0 
84 
85 
86 87 1.0 88 1.0 103 1.0 
87 
88 89 2.0 102 1.0 
89 
90 92 1.0 93 1.0 94 1.0 102 1.0 
91 95 1.0 96 1.0 97 1.0 102 1.0 
92 95 1.0 98 1.0 99 1.0 
93 
94 
95 100 1.0 101 1.0 
96 
97 
98 
99 
100 
101 
102 
103 104 1.0 
104 105 1.0 106 1.0 107 1.0 
105 
106 
107 108 1.0 109 1.0 110 1.0 
108 
109 
110 111 1.0 112 1.0 113 1.0 
111 
112 
113 114 1.0 115 1.0 132 1.0 
114 
115 116 2.0 129 1.0 
116 
117 119 1.0 120 1.0 121 1.0 129 1.0 
118 122 1.0 123 1.0 124 1.0 129 1.0 
119 122 1.0 125 1.0 126 1.0 
120 
121 
122 127 1.0 128 1.0 
123 
124 
125 
126 
127 
128 
129 
130 131 2.0 132 1.0 143 1.0 
131 
132 133 1.0 
133 
134 135 1.5 139 1.5 140 1.0 
135 136 1.5 145 1.0 
136 137 1.5 141 1.0 
137 138 1.5 146 1.0 
138 139 1.5 142 1.0 
139 143 1.0 
140 
141 
142 
143 144 1.0 
144 
145 148 1.0 149 1.0 150 1.0 
146 147 2.0 
147 
148 
149 
150 


