%mem=1GB
%nprocshared=12
#p geom=connect #p opt b3lyp m06-2x geom=connect scrf=(solvent=benzene) freq

00012

0 1
O   -2.542641  -1.557181  -4.868463
C   -1.741545  -2.628739  -5.342156
H   -0.672182  -2.416593  -5.296074
H   -1.985796  -2.777393  -6.394107
C   -2.102563  -3.894214  -4.552616
H   -3.186409  -3.938677  -4.434603
H   -1.833996  -4.774993  -5.136631
C   -1.402877  -3.981027  -3.185121
H   -0.419715  -4.429780  -3.336182
H   -1.196257  -2.993999  -2.780115
C   -2.205906  -4.797725  -2.152693
H   -2.489073  -5.734108  -2.634678
C   -1.367410  -5.169904  -0.905816
O   -0.299692  -4.588490  -0.705733
C   -1.112212  -6.519900   1.148916
C   -3.092018  -6.838133  -0.182466
C   -1.855923  -7.747346   1.676829
H   -1.146189  -5.704695   1.873765
H   -0.063214  -6.742615   0.944986
C   -3.272413  -7.583114   1.141430
H   -3.016618  -7.543537  -1.011364
H   -3.938080  -6.176832  -0.375041
H   -1.410203  -8.652472   1.261370
H   -1.819690  -7.828496   2.763941
H   -3.794730  -8.533523   1.024696
H   -3.853611  -6.968196   1.830496
N   -1.830283  -6.109501  -0.056396
O   -3.424775  -4.110591  -1.814137
C   -3.343705  -2.979074  -0.946695
H   -2.715584  -2.202394  -1.379129
H   -2.913083  -3.264661   0.012661
C   -4.761157  -2.444163  -0.707714
H   -5.107594  -1.867318  -1.564408
H   -5.426903  -3.306016  -0.646420
C   -4.929350  -1.656285   0.605800
H   -4.422211  -2.173504   1.421495
H   -5.986497  -1.707689   0.872115
C   -4.550631  -0.157403   0.566034
H   -5.142286   0.276803  -0.232066
C   -4.877071   0.539205   1.899009
O   -4.369419   0.103978   2.933241
C   -6.136408   2.225946   3.179355
C   -6.336178   2.265130   0.796702
C   -6.757390   3.561699   2.778942
H   -6.883971   1.587177   3.652266
H   -5.324647   2.350011   3.893482
C   -7.291142   3.303962   1.379195
H   -6.872871   1.578055   0.141405
H   -5.560352   2.767945   0.231344
H   -7.530388   3.892654   3.473591
H   -5.991725   4.336627   2.744249
H   -8.295535   2.882329   1.444066
H   -7.351986   4.210517   0.775640
N   -5.715837   1.592941   1.932351
C   -2.057931  -0.430945   0.715588
O   -2.044972  -1.253730   1.628340
N   -3.164470   0.088712   0.189454
H   -3.035752   0.732683  -0.575303
C    0.625528  -1.814444   0.478640
C    1.943965  -2.305485   0.416396
C    2.961033  -1.486475  -0.110308
C    2.684734  -0.167714  -0.533218
C    1.356386   0.315837  -0.460642
C    0.324935  -0.499610   0.053546
H   -0.136384  -2.468670   0.871551
H    3.972077  -1.868210  -0.141933
H    1.134628   1.330306  -0.766456
N   -0.970960   0.060908   0.126053
H   -1.084175   0.944658  -0.368707
C    2.287873  -3.686725   0.946193
C    3.822692   0.689158  -0.959991
O    4.906057   0.238127  -1.336295
F    2.536486  -4.511142  -0.067729
F    3.379616  -3.603915   1.704079
F    1.310193  -4.195652   1.694514
O    3.580090   1.998593  -0.781272
C    4.660834   2.921613  -0.750834
H    4.816748   3.305817  -1.759286
H    5.591212   2.438901  -0.446680
C    4.357784   4.080440   0.218047
H    5.137344   4.831750   0.089918
H    3.431947   4.569723  -0.085065
C    4.300541   3.706744   1.721898
H    4.229466   4.627660   2.301758
H    5.240978   3.242476   2.020930
C    3.126401   2.774775   2.099936
H    3.320809   1.811099   1.638322
C    2.966766   2.469131   3.610107
O    3.514734   3.197945   4.440614
C    1.712232   1.228007   5.352510
C    1.570475   0.453361   3.089069
C    0.863820  -0.048033   5.324964
H    1.114774   2.082617   5.673803
H    2.555766   1.134359   6.038494
C    0.437200  -0.201743   3.870973
H    1.200624   0.888412   2.168144
H    2.333465  -0.281818   2.829598
H    1.479579  -0.900901   5.614503
H    0.016079  -0.006445   6.010125
H    0.270489  -1.240564   3.582499
H   -0.492465   0.337652   3.690382
N    2.158367   1.450030   3.979427
O    1.907826   3.289395   1.551500
C    1.367873   4.493896   2.101303
H    1.836299   5.364648   1.641718
H    1.519088   4.586960   3.176190
C   -0.138292   4.474230   1.831767
H   -0.611169   5.298956   2.365578
H   -0.309971   4.655488   0.771852
C   -0.740172   3.121218   2.257932
H   -0.383609   2.896586   3.261442
H   -0.316161   2.332404   1.644325
C   -2.272090   2.974257   2.214195
H   -2.519657   1.930365   2.375923
C   -2.921871   3.824986   3.312242
O   -3.439692   4.902614   3.002616
C   -3.546566   4.121122   5.676397
C   -2.386340   2.106057   5.073128
C   -3.216019   3.348467   6.953868
H   -4.625443   4.157040   5.516101
H   -3.181632   5.148594   5.724928
C   -2.968506   1.926113   6.473083
H   -1.301626   2.177381   5.138490
H   -2.635883   1.251131   4.447110
H   -2.303452   3.748270   7.398813
H   -4.006169   3.411543   7.703098
H   -2.311052   1.361140   7.135158
H   -3.916581   1.389514   6.408288
N   -2.925937   3.375809   4.583534
C   -2.451672   3.091011  -0.288936
O   -1.336109   2.655116  -0.559168
N   -2.867819   3.369784   0.940596
H   -3.749688   3.848479   1.057091
C   -5.089299   1.954247  -2.395507
C   -5.478356   0.823631  -3.136411
C   -4.493304  -0.016392  -3.693460
C   -3.119552   0.267625  -3.509943
C   -2.747051   1.394239  -2.751910
C   -3.729260   2.209805  -2.143522
H   -5.861351   2.569214  -1.959120
H   -4.805208  -0.901074  -4.229795
H   -1.692654   1.587411  -2.616479
N   -3.421387   3.208923  -1.191203
H   -4.206117   3.773444  -0.905341
C   -6.948717   0.466729  -3.214953
C   -2.058433  -0.637079  -4.019587
O   -0.877757  -0.562286  -3.674074
F   -7.678227   1.549941  -3.473694
F   -7.312980  -0.023703  -2.031756
F   -7.188953  -0.447841  -4.152534

1 2 1.0 
2 3 1.0 4 1.0 5 1.0 
3 
4 
5 6 1.0 7 1.0 8 1.0 
6 
7 
8 9 1.0 10 1.0 11 1.0 
9 
10 
11 12 1.0 13 1.0 28 1.0 
12 
13 14 2.0 27 1.0 
14 
15 17 1.0 18 1.0 19 1.0 27 1.0 
16 20 1.0 21 1.0 22 1.0 27 1.0 
17 20 1.0 23 1.0 24 1.0 
18 
19 
20 25 1.0 26 1.0 
21 
22 
23 
24 
25 
26 
27 
28 29 1.0 
29 30 1.0 31 1.0 32 1.0 
30 
31 
32 33 1.0 34 1.0 35 1.0 
33 
34 
35 36 1.0 37 1.0 38 1.0 
36 
37 
38 39 1.0 40 1.0 57 1.0 
39 
40 41 2.0 54 1.0 
41 
42 44 1.0 45 1.0 46 1.0 54 1.0 
43 47 1.0 48 1.0 49 1.0 54 1.0 
44 47 1.0 50 1.0 51 1.0 
45 
46 
47 52 1.0 53 1.0 
48 
49 
50 
51 
52 
53 
54 
55 56 2.0 57 1.0 68 1.0 
56 
57 58 1.0 
58 
59 60 1.5 64 1.5 65 1.0 
60 61 1.5 70 1.0 
61 62 1.5 66 1.0 
62 63 1.5 71 1.0 
63 64 1.5 67 1.0 
64 68 1.0 
65 
66 
67 
68 69 1.0 
69 
70 73 1.0 74 1.0 75 1.0 
71 72 2.0 76 1.0 
72 
73 
74 
75 
76 77 1.0 
77 78 1.0 79 1.0 80 1.0 
78 
79 
80 81 1.0 82 1.0 83 1.0 
81 
82 
83 84 1.0 85 1.0 86 1.0 
84 
85 
86 87 1.0 88 1.0 103 1.0 
87 
88 89 2.0 102 1.0 
89 
90 92 1.0 93 1.0 94 1.0 102 1.0 
91 95 1.0 96 1.0 97 1.0 102 1.0 
92 95 1.0 98 1.0 99 1.0 
93 
94 
95 100 1.0 101 1.0 
96 
97 
98 
99 
100 
101 
102 
103 104 1.0 
104 105 1.0 106 1.0 107 1.0 
105 
106 
107 108 1.0 109 1.0 110 1.0 
108 
109 
110 111 1.0 112 1.0 113 1.0 
111 
112 
113 114 1.0 115 1.0 132 1.0 
114 
115 116 2.0 129 1.0 
116 
117 119 1.0 120 1.0 121 1.0 129 1.0 
118 122 1.0 123 1.0 124 1.0 129 1.0 
119 122 1.0 125 1.0 126 1.0 
120 
121 
122 127 1.0 128 1.0 
123 
124 
125 
126 
127 
128 
129 
130 131 2.0 132 1.0 143 1.0 
131 
132 133 1.0 
133 
134 135 1.5 139 1.5 140 1.0 
135 136 1.5 145 1.0 
136 137 1.5 141 1.0 
137 138 1.5 146 1.0 
138 139 1.5 142 1.0 
139 143 1.0 
140 
141 
142 
143 144 1.0 
144 
145 148 1.0 149 1.0 150 1.0 
146 147 2.0 
147 
148 
149 
150 


