%mem=1GB
%nprocshared=12
#p geom=connect #p opt b3lyp m06-2x geom=connect scrf=(solvent=benzene) freq

00010

0 1
O   -4.584720  -1.221386  -3.489738
C   -5.433916  -2.350615  -3.564268
H   -6.369343  -2.076715  -4.052807
H   -5.682836  -2.732631  -2.574168
C   -4.679539  -3.414277  -4.378289
H   -5.290471  -4.312494  -4.472593
H   -4.553112  -3.032656  -5.392054
C   -3.285830  -3.772791  -3.812456
H   -2.685938  -4.167655  -4.633696
H   -2.753731  -2.880965  -3.484968
C   -3.294625  -4.834676  -2.693999
H   -3.716031  -5.740351  -3.131174
C   -1.865841  -5.179411  -2.197068
O   -0.936532  -4.403317  -2.435738
C   -0.379873  -6.711959  -0.949586
C   -2.711408  -7.277979  -1.119799
C   -0.569374  -8.135452  -0.425099
H    0.409666  -6.662378  -1.701539
H   -0.115191  -6.034639  -0.136061
C   -2.056308  -8.218254  -0.106643
H   -3.595556  -6.801797  -0.693273
H   -3.018365  -7.829418  -2.009778
H    0.062523  -8.356031   0.436173
H   -0.322265  -8.851438  -1.210472
H   -2.233960  -7.847565   0.904197
H   -2.445683  -9.235744  -0.159637
N   -1.677529  -6.311054  -1.487845
O   -4.176822  -4.453778  -1.625867
C   -3.687400  -3.561670  -0.629628
H   -3.281766  -2.663502  -1.092592
H   -2.896977  -4.041672  -0.053302
C   -4.844143  -3.228826   0.317434
H   -5.581312  -2.603457  -0.184554
H   -5.360720  -4.162261   0.544156
C   -4.427328  -2.603719   1.661505
H   -3.672229  -3.215700   2.154335
H   -5.296093  -2.673328   2.318084
C   -4.011758  -1.117124   1.607115
H   -4.750271  -0.618736   0.984174
C   -4.005571  -0.414589   2.971942
O   -2.995848  -0.481578   3.675083
C   -5.170902   0.973558   4.644561
C   -6.337691   0.448300   2.613596
C   -6.377277   1.903939   4.525069
H   -4.252743   1.521861   4.854036
H   -5.317307   0.249665   5.447540
C   -7.297075   1.181572   3.551677
H   -6.762606  -0.496646   2.271345
H   -6.125947   1.066878   1.739254
H   -6.850143   2.113225   5.485273
H   -6.065332   2.854387   4.089204
H   -7.908459   0.457744   4.092805
H   -7.970689   1.857814   3.023796
N   -5.102271   0.258239   3.374369
C   -1.624530  -1.489101   0.877862
O   -1.385527  -2.547506   1.455051
N   -2.777318  -0.833407   0.896295
H   -2.804632   0.047579   0.406880
C    0.948135  -2.510961  -0.550226
C    2.246397  -2.736026  -1.060683
C    3.115886  -1.639663  -1.286057
C    2.698370  -0.322194  -0.990620
C    1.405898  -0.129163  -0.465714
C    0.530479  -1.196263  -0.266601
H    0.279844  -3.348211  -0.413552
H    4.101694  -1.810056  -1.694808
H    1.056593   0.856044  -0.203680
N   -0.765167  -0.828083   0.120843
H   -1.059284   0.086395  -0.183356
C    2.670195  -4.153054  -1.398867
C    3.570232   0.858579  -1.227237
O    4.727044   0.798788  -1.643584
F    2.091242  -4.524584  -2.537039
F    3.991349  -4.250088  -1.539701
F    2.289944  -4.985664  -0.432332
O    2.923091   2.000928  -0.930382
C    3.552410   3.258310  -1.007015
H    3.738329   3.488343  -2.056919
H    4.515340   3.256496  -0.493991
C    2.594733   4.297258  -0.395176
H    2.836023   5.247935  -0.872307
H    1.562607   4.092263  -0.681451
C    2.709687   4.529695   1.130682
H    2.265829   5.510715   1.280634
H    3.757654   4.646798   1.410076
C    2.007584   3.520491   2.088021
H    0.988563   3.380744   1.740054
C    2.707943   2.147576   2.147910
O    3.915476   2.077913   1.901503
C    2.657730  -0.242193   2.740704
C    0.601488   0.983260   2.877931
C    1.553164  -1.217062   3.143953
H    3.383771  -0.138654   3.548989
H    3.196056  -0.588748   1.857721
C    0.429701  -0.325233   3.642300
H    0.300515   1.817876   3.502577
H    0.000328   0.980664   1.973745
H    1.220515  -1.790271   2.280499
H    1.882082  -1.933772   3.897263
H    0.556751  -0.142082   4.710227
H   -0.547058  -0.781367   3.505175
N    2.011644   1.051075   2.517110
O    2.006908   3.982999   3.446102
C    1.488941   5.269090   3.784080
H    2.071041   6.067953   3.326609
H    1.630335   5.399297   4.857569
C   -0.001196   5.416171   3.463006
H   -0.320518   6.429563   3.709863
H   -0.140653   5.343716   2.385615
C   -0.872615   4.417389   4.258936
H   -1.195474   4.896549   5.182859
H   -0.264813   3.582101   4.601052
C   -2.086317   3.862333   3.489171
H   -2.556457   3.064212   4.063095
C   -3.120308   4.969609   3.184940
O   -3.078249   5.543479   2.091929
C   -5.053989   6.324434   3.899806
C   -4.127304   4.772063   5.482279
C   -5.673308   6.605701   5.269283
H   -5.801654   5.926536   3.211720
H   -4.640500   7.232368   3.456819
C   -5.433330   5.324702   6.055036
H   -3.284207   5.134339   6.070806
H   -4.121125   3.684815   5.519768
H   -5.145662   7.432540   5.747283
H   -6.728433   6.875569   5.209278
H   -5.385667   5.491076   7.131961
H   -6.246959   4.623508   5.865570
N   -4.030589   5.304469   4.122453
C   -2.271460   2.627693   1.349794
O   -3.418380   2.230556   1.535196
N   -1.565937   3.270840   2.265957
H   -0.637132   3.568410   2.026178
C   -0.864782   1.655089  -1.885955
C   -1.003955   0.753202  -2.955027
C   -2.236447   0.108917  -3.161520
C   -3.333048   0.351313  -2.300080
C   -3.174138   1.248477  -1.224751
C   -1.913682   1.836998  -0.970883
H    0.094786   2.118855  -1.712760
H   -2.300978  -0.607565  -3.967552
H   -4.015481   1.396429  -0.563750
N   -1.569114   2.497243   0.224240
H   -0.658177   2.926342   0.226021
C    0.201544   0.353916  -3.781440
C   -4.598593  -0.417429  -2.424578
O   -5.516390  -0.368372  -1.604537
F    1.247030   1.146527  -3.551202
F    0.538859  -0.888885  -3.445974
F   -0.091704   0.389097  -5.078890

1 2 1.0 
2 3 1.0 4 1.0 5 1.0 
3 
4 
5 6 1.0 7 1.0 8 1.0 
6 
7 
8 9 1.0 10 1.0 11 1.0 
9 
10 
11 12 1.0 13 1.0 28 1.0 
12 
13 14 2.0 27 1.0 
14 
15 17 1.0 18 1.0 19 1.0 27 1.0 
16 20 1.0 21 1.0 22 1.0 27 1.0 
17 20 1.0 23 1.0 24 1.0 
18 
19 
20 25 1.0 26 1.0 
21 
22 
23 
24 
25 
26 
27 
28 29 1.0 
29 30 1.0 31 1.0 32 1.0 
30 
31 
32 33 1.0 34 1.0 35 1.0 
33 
34 
35 36 1.0 37 1.0 38 1.0 
36 
37 
38 39 1.0 40 1.0 57 1.0 
39 
40 41 2.0 54 1.0 
41 
42 44 1.0 45 1.0 46 1.0 54 1.0 
43 47 1.0 48 1.0 49 1.0 54 1.0 
44 47 1.0 50 1.0 51 1.0 
45 
46 
47 52 1.0 53 1.0 
48 
49 
50 
51 
52 
53 
54 
55 56 2.0 57 1.0 68 1.0 
56 
57 58 1.0 
58 
59 60 1.5 64 1.5 65 1.0 
60 61 1.5 70 1.0 
61 62 1.5 66 1.0 
62 63 1.5 71 1.0 
63 64 1.5 67 1.0 
64 68 1.0 
65 
66 
67 
68 69 1.0 
69 
70 73 1.0 74 1.0 75 1.0 
71 72 2.0 76 1.0 
72 
73 
74 
75 
76 77 1.0 
77 78 1.0 79 1.0 80 1.0 
78 
79 
80 81 1.0 82 1.0 83 1.0 
81 
82 
83 84 1.0 85 1.0 86 1.0 
84 
85 
86 87 1.0 88 1.0 103 1.0 
87 
88 89 2.0 102 1.0 
89 
90 92 1.0 93 1.0 94 1.0 102 1.0 
91 95 1.0 96 1.0 97 1.0 102 1.0 
92 95 1.0 98 1.0 99 1.0 
93 
94 
95 100 1.0 101 1.0 
96 
97 
98 
99 
100 
101 
102 
103 104 1.0 
104 105 1.0 106 1.0 107 1.0 
105 
106 
107 108 1.0 109 1.0 110 1.0 
108 
109 
110 111 1.0 112 1.0 113 1.0 
111 
112 
113 114 1.0 115 1.0 132 1.0 
114 
115 116 2.0 129 1.0 
116 
117 119 1.0 120 1.0 121 1.0 129 1.0 
118 122 1.0 123 1.0 124 1.0 129 1.0 
119 122 1.0 125 1.0 126 1.0 
120 
121 
122 127 1.0 128 1.0 
123 
124 
125 
126 
127 
128 
129 
130 131 2.0 132 1.0 143 1.0 
131 
132 133 1.0 
133 
134 135 1.5 139 1.5 140 1.0 
135 136 1.5 145 1.0 
136 137 1.5 141 1.0 
137 138 1.5 146 1.0 
138 139 1.5 142 1.0 
139 143 1.0 
140 
141 
142 
143 144 1.0 
144 
145 148 1.0 149 1.0 150 1.0 
146 147 2.0 
147 
148 
149 
150 


