%mem=1GB
%nprocshared=12
#p geom=connect #p opt b3lyp m06-2x geom=connect scrf=(solvent=benzene) freq

00022

0 1
O   -4.740957  -1.106021  -4.745601
C   -5.798025  -1.903132  -5.262538
H   -5.498892  -2.282404  -6.239806
H   -6.694975  -1.303180  -5.424796
C   -6.093364  -3.078030  -4.315801
H   -6.400412  -2.693674  -3.342417
H   -6.946414  -3.638956  -4.698430
C   -4.891962  -4.026184  -4.155457
H   -4.663214  -4.471839  -5.124614
H   -4.000684  -3.460330  -3.882830
C   -5.140301  -5.151685  -3.125777
H   -6.007519  -5.713094  -3.474636
C   -3.962092  -6.152740  -3.027010
O   -2.862987  -5.848541  -3.498638
C   -3.123397  -8.358301  -2.283228
C   -5.414933  -7.797633  -1.811395
C   -3.833067  -9.615463  -1.778273
H   -2.385179  -8.012499  -1.557811
H   -2.605897  -8.542747  -3.226400
C   -5.065900  -9.083520  -1.059677
H   -6.142052  -8.001719  -2.598800
H   -5.844970  -7.056990  -1.135625
H   -4.140326 -10.228639  -2.626902
H   -3.199997 -10.229992  -1.136943
H   -5.888355  -9.799733  -1.041259
H   -4.811090  -8.845037  -0.025812
N   -4.164557  -7.340785  -2.418802
O   -5.487494  -4.622260  -1.836701
C   -4.498575  -3.862382  -1.147298
H   -4.259456  -2.967566  -1.719045
H   -3.574438  -4.424810  -1.010829
C   -5.067521  -3.483042   0.225157
H   -6.011736  -2.956492   0.098793
H   -5.307776  -4.400585   0.763417
C   -4.098306  -2.649498   1.079609
H   -3.160622  -3.199297   1.170658
H   -4.487744  -2.599277   2.098049
C   -3.861217  -1.219769   0.534066
H   -4.237435  -1.121839  -0.481570
C   -4.439986  -0.113833   1.420196
O   -3.796068   0.235804   2.413599
C   -6.031985   1.739427   1.684389
C   -6.539446   0.046708   0.060297
C   -7.036407   2.325328   0.697534
H   -6.503833   1.519298   2.643284
H   -5.214004   2.434810   1.865537
C   -7.644884   1.102920   0.023979
H   -6.955360  -0.926114   0.320687
H   -6.074780  -0.046063  -0.916273
H   -7.781394   2.960057   1.179046
H   -6.513734   2.930551  -0.044735
H   -8.502591   0.755684   0.602178
H   -7.992609   1.310770  -0.989060
N   -5.587337   0.492507   1.074946
C   -1.537970  -1.402648  -0.358400
O   -1.748354  -2.297144  -1.174903
N   -2.451344  -0.912309   0.463957
H   -2.165238  -0.182600   1.104898
C    1.251472  -2.032789  -1.540111
C    2.599887  -2.297655  -1.847614
C    3.620038  -1.704334  -1.071894
C    3.305327  -0.835911  -0.000153
C    1.947611  -0.539565   0.259837
C    0.923352  -1.139040  -0.499024
H    0.487901  -2.489438  -2.151299
H    4.653290  -1.922666  -1.302168
H    1.681417   0.143216   1.055779
N   -0.395082  -0.743239  -0.200538
H   -0.469234   0.100667   0.367441
C    2.930166  -3.187548  -3.032537
C    4.403854  -0.282599   0.842069
O    5.594893  -0.535133   0.649226
F    2.114380  -4.239428  -3.064013
F    2.769096  -2.487938  -4.153123
F    4.185509  -3.631149  -2.981219
O    3.961153   0.480478   1.860351
C    4.859591   0.847018   2.896215
H    5.776917   1.276761   2.490327
H    5.141038  -0.057757   3.436871
C    4.184294   1.831191   3.859901
H    3.140428   1.550435   4.007977
H    4.661394   1.743491   4.836501
C    4.294421   3.292428   3.396677
H    3.954039   3.377264   2.365308
H    5.350039   3.568445   3.382213
C    3.516050   4.264930   4.314635
H    3.746875   3.982656   5.342261
C    3.935155   5.749041   4.154066
O    4.563924   6.097552   3.151159
C    3.933145   8.050996   5.060474
C    2.812938   6.333271   6.318891
C    3.556486   8.622535   6.428197
H    3.352124   8.527042   4.268910
H    4.990841   8.205303   4.839499
C    2.463676   7.689794   6.933431
H    1.910767   5.758638   6.103327
H    3.430184   5.751601   7.005248
H    4.417860   8.572389   7.096108
H    3.235985   9.663924   6.377981
H    2.402486   7.658322   8.022018
H    1.495587   8.023815   6.556712
N    3.586435   6.631865   5.113478
O    2.105732   4.073366   4.131128
C    1.512609   4.673975   2.981031
H    2.214314   4.734238   2.148529
H    1.192480   5.693115   3.203130
C    0.335567   3.810316   2.541701
H    0.035534   4.136627   1.546030
H    0.682851   2.781378   2.440179
C   -0.878364   3.872886   3.485415
H   -1.307234   4.875950   3.467440
H   -0.535685   3.711911   4.508941
C   -1.961370   2.823164   3.160304
H   -1.494421   1.841011   3.209850
C   -3.151359   2.851260   4.124864
O   -4.043928   3.680574   3.922490
C   -4.290006   1.981924   6.130941
C   -2.222130   0.945413   5.475607
C   -3.808578   1.105638   7.286909
H   -5.177427   1.553297   5.662268
H   -4.542376   2.987740   6.471765
C   -2.817264   0.149525   6.638653
H   -1.279673   1.412239   5.766454
H   -2.032365   0.281615   4.630866
H   -3.293059   1.722726   8.024465
H   -4.624299   0.590933   7.796180
H   -2.059846  -0.212259   7.335163
H   -3.351079  -0.719279   6.249984
N   -3.201509   1.985538   5.157074
C   -2.038607   2.362918   0.754810
O   -1.016991   1.677434   0.789148
N   -2.491717   3.007755   1.817341
H   -3.348439   3.540077   1.771002
C   -1.418324   1.537562  -2.108212
C   -1.306544   0.705926  -3.240277
C   -2.472332   0.164372  -3.819070
C   -3.749840   0.458577  -3.285585
C   -3.842406   1.297202  -2.154179
C   -2.682594   1.783874  -1.528275
H   -0.518838   1.931860  -1.658969
H   -2.365465  -0.486461  -4.675077
H   -4.809504   1.524395  -1.730059
N   -2.841131   2.466971  -0.304176
H   -3.705884   2.970501  -0.180125
C    0.054095   0.354183  -3.813105
C   -4.990474  -0.140857  -3.843003
O   -6.123002   0.182087  -3.480069
F    0.253130   1.040781  -4.934554
F    0.100020  -0.945077  -4.093451
F    1.038443   0.632394  -2.960920

1 2 1.0 
2 3 1.0 4 1.0 5 1.0 
3 
4 
5 6 1.0 7 1.0 8 1.0 
6 
7 
8 9 1.0 10 1.0 11 1.0 
9 
10 
11 12 1.0 13 1.0 28 1.0 
12 
13 14 2.0 27 1.0 
14 
15 17 1.0 18 1.0 19 1.0 27 1.0 
16 20 1.0 21 1.0 22 1.0 27 1.0 
17 20 1.0 23 1.0 24 1.0 
18 
19 
20 25 1.0 26 1.0 
21 
22 
23 
24 
25 
26 
27 
28 29 1.0 
29 30 1.0 31 1.0 32 1.0 
30 
31 
32 33 1.0 34 1.0 35 1.0 
33 
34 
35 36 1.0 37 1.0 38 1.0 
36 
37 
38 39 1.0 40 1.0 57 1.0 
39 
40 41 2.0 54 1.0 
41 
42 44 1.0 45 1.0 46 1.0 54 1.0 
43 47 1.0 48 1.0 49 1.0 54 1.0 
44 47 1.0 50 1.0 51 1.0 
45 
46 
47 52 1.0 53 1.0 
48 
49 
50 
51 
52 
53 
54 
55 56 2.0 57 1.0 68 1.0 
56 
57 58 1.0 
58 
59 60 1.5 64 1.5 65 1.0 
60 61 1.5 70 1.0 
61 62 1.5 66 1.0 
62 63 1.5 71 1.0 
63 64 1.5 67 1.0 
64 68 1.0 
65 
66 
67 
68 69 1.0 
69 
70 73 1.0 74 1.0 75 1.0 
71 72 2.0 76 1.0 
72 
73 
74 
75 
76 77 1.0 
77 78 1.0 79 1.0 80 1.0 
78 
79 
80 81 1.0 82 1.0 83 1.0 
81 
82 
83 84 1.0 85 1.0 86 1.0 
84 
85 
86 87 1.0 88 1.0 103 1.0 
87 
88 89 2.0 102 1.0 
89 
90 92 1.0 93 1.0 94 1.0 102 1.0 
91 95 1.0 96 1.0 97 1.0 102 1.0 
92 95 1.0 98 1.0 99 1.0 
93 
94 
95 100 1.0 101 1.0 
96 
97 
98 
99 
100 
101 
102 
103 104 1.0 
104 105 1.0 106 1.0 107 1.0 
105 
106 
107 108 1.0 109 1.0 110 1.0 
108 
109 
110 111 1.0 112 1.0 113 1.0 
111 
112 
113 114 1.0 115 1.0 132 1.0 
114 
115 116 2.0 129 1.0 
116 
117 119 1.0 120 1.0 121 1.0 129 1.0 
118 122 1.0 123 1.0 124 1.0 129 1.0 
119 122 1.0 125 1.0 126 1.0 
120 
121 
122 127 1.0 128 1.0 
123 
124 
125 
126 
127 
128 
129 
130 131 2.0 132 1.0 143 1.0 
131 
132 133 1.0 
133 
134 135 1.5 139 1.5 140 1.0 
135 136 1.5 145 1.0 
136 137 1.5 141 1.0 
137 138 1.5 146 1.0 
138 139 1.5 142 1.0 
139 143 1.0 
140 
141 
142 
143 144 1.0 
144 
145 148 1.0 149 1.0 150 1.0 
146 147 2.0 
147 
148 
149 
150 


