%mem=1GB
%nprocshared=12
#p geom=connect #p opt b3lyp m06-2x geom=connect scrf=(solvent=benzene) freq

00011

0 1
O   -3.998168  -1.192706  -3.915883
C   -3.970796  -2.540619  -4.365061
H   -3.108227  -2.703932  -5.012678
H   -4.860279  -2.730376  -4.968662
C   -3.965136  -3.528244  -3.194969
H   -4.730932  -3.249144  -2.470427
H   -4.259467  -4.505001  -3.580324
C   -2.596339  -3.670757  -2.510315
H   -1.838361  -3.876875  -3.267262
H   -2.303130  -2.720241  -2.064880
C   -2.585444  -4.829993  -1.481923
H   -2.776893  -5.742522  -2.046958
C   -1.225466  -5.010695  -0.762322
O   -0.420160  -4.075904  -0.737037
C    0.299040  -6.484641   0.512743
C   -1.855545  -7.348309  -0.106384
C    0.282374  -7.985562   0.800581
H    0.321592  -5.920117   1.443978
H    1.167759  -6.197866  -0.082347
C   -1.199091  -8.330982   0.865124
H   -1.939328  -7.794629  -1.098441
H   -2.857204  -7.075408   0.229734
H    0.749094  -8.523226  -0.026227
H    0.820049  -8.246964   1.712913
H   -1.403164  -9.373119   0.616061
H   -1.572143  -8.152127   1.874858
N   -0.957638  -6.194804  -0.172057
O   -3.668845  -4.699724  -0.548302
C   -3.557677  -3.650799   0.403697
H   -3.111640  -2.794389  -0.082661
H   -2.909562  -3.941755   1.231853
C   -4.953928  -3.276985   0.906364
H   -5.601574  -3.067651   0.054380
H   -5.384550  -4.149059   1.399466
C   -4.988472  -2.086529   1.885433
H   -4.361928  -2.282861   2.754411
H   -6.000641  -2.046471   2.291210
C   -4.690994  -0.705934   1.245358
H   -5.234249  -0.730865   0.305077
C   -5.171505   0.496574   2.065473
O   -4.784179   0.607331   3.229823
C   -6.376465   2.649921   2.160469
C   -6.510990   1.387558   0.134031
C   -6.717549   3.627564   1.040739
H   -7.260001   2.433487   2.762738
H   -5.620234   3.052778   2.831280
C   -7.206728   2.732398  -0.089808
H   -7.222034   0.566529   0.028754
H   -5.726710   1.229913  -0.601351
H   -7.460681   4.366538   1.343202
H   -5.823989   4.170946   0.735716
H   -8.286736   2.600331  -0.008165
H   -7.004570   3.152686  -1.075709
N   -5.965909   1.422155   1.490020
C   -2.170962  -0.820654   1.452558
O   -2.098117  -1.372561   2.548217
N   -3.307320  -0.482683   0.844817
H   -3.187962   0.047852  -0.007879
C    0.581919  -2.095517   1.452505
C    1.919503  -2.534411   1.443499
C    2.880859  -1.817466   0.705603
C    2.529305  -0.642907   0.004694
C    1.181062  -0.209886   0.021908
C    0.204460  -0.931781   0.745140
H   -0.141696  -2.673249   2.005462
H    3.906516  -2.159169   0.719828
H    0.899987   0.693848  -0.502886
N   -1.124664  -0.450247   0.716578
H   -1.329077   0.239347  -0.004808
C    2.345700  -3.747622   2.245849
C    3.611221   0.132447  -0.659668
O    4.704021  -0.352341  -0.958199
F    2.796477  -4.691531   1.424244
F    3.323982  -3.392173   3.075237
F    1.346439  -4.249356   2.968708
O    3.310604   1.436212  -0.793798
C    4.345509   2.381387  -1.040597
H    4.418245   2.538104  -2.117161
H    5.316973   2.012007  -0.707704
C    4.048320   3.716932  -0.330354
H    4.769220   4.451977  -0.688966
H    3.074614   4.085547  -0.653562
C    4.125736   3.692653   1.218356
H    4.007259   4.711955   1.587521
H    5.122620   3.379892   1.531110
C    3.073069   2.779640   1.883679
H    3.339077   1.760518   1.623292
C    3.032674   2.797517   3.431274
O    3.526474   3.747566   4.043204
C    2.161895   1.751253   5.507271
C    1.889350   0.571407   3.434840
C    1.723166   0.320284   5.828028
H    1.370712   2.462375   5.749862
H    3.050186   2.032793   6.075585
C    1.172135  -0.229741   4.518816
H    1.213180   0.803368   2.615187
H    2.726745  -0.003531   3.037975
H    2.592694  -0.266052   6.128969
H    0.998490   0.274598   6.641966
H    1.334801  -1.303638   4.418170
H    0.097465  -0.065061   4.454529
N    2.398986   1.786208   4.067483
O    1.781500   3.050474   1.332830
C    1.161880   4.299657   1.644582
H    1.574801   5.102378   1.033030
H    1.293066   4.593178   2.685667
C   -0.335069   4.127090   1.388181
H   -0.873481   4.973812   1.815287
H   -0.527754   4.142168   0.315145
C   -0.822875   2.797086   1.983297
H   -0.333392   2.648924   2.944058
H   -0.453653   1.989409   1.356916
C   -2.337402   2.641749   2.166265
H   -2.559829   1.604989   2.364839
C   -2.879295   3.445454   3.350673
O   -3.459078   4.513043   3.124090
C   -3.235942   3.661186   5.779558
C   -2.046703   1.729314   4.992331
C   -2.662899   2.917796   6.987170
H   -4.325781   3.604934   5.773204
H   -2.953970   4.715578   5.788604
C   -2.396340   1.514024   6.463519
H   -0.972146   1.873699   4.896697
H   -2.336802   0.861666   4.399192
H   -1.722098   3.379938   7.290383
H   -3.332140   2.929615   7.848329
H   -1.609683   0.996117   7.013686
H   -3.305318   0.914806   6.538402
N   -2.722667   2.967253   4.601123
C   -3.000886   2.540003  -0.243488
O   -2.192890   1.682081  -0.596736
N   -3.077135   3.035861   0.982108
H   -3.747843   3.766834   1.177268
C   -4.733991   3.742110  -3.197908
C   -5.067364   3.478259  -4.540282
C   -4.889451   2.176552  -5.052655
C   -4.388675   1.134419  -4.237563
C   -4.046991   1.417265  -2.894008
C   -4.205797   2.727264  -2.377844
H   -4.885433   4.738610  -2.808877
H   -5.160675   1.976101  -6.079733
H   -3.676385   0.620875  -2.265196
N   -3.925000   3.067284  -1.035426
H   -4.453897   3.838637  -0.659920
C   -5.641350   4.587364  -5.405799
C   -4.255757  -0.227784  -4.823472
O   -4.400574  -0.451490  -6.027570
F   -5.027310   5.741307  -5.149050
F   -6.936778   4.723286  -5.133296
F   -5.502214   4.318212  -6.703284

1 2 1.0 
2 3 1.0 4 1.0 5 1.0 
3 
4 
5 6 1.0 7 1.0 8 1.0 
6 
7 
8 9 1.0 10 1.0 11 1.0 
9 
10 
11 12 1.0 13 1.0 28 1.0 
12 
13 14 2.0 27 1.0 
14 
15 17 1.0 18 1.0 19 1.0 27 1.0 
16 20 1.0 21 1.0 22 1.0 27 1.0 
17 20 1.0 23 1.0 24 1.0 
18 
19 
20 25 1.0 26 1.0 
21 
22 
23 
24 
25 
26 
27 
28 29 1.0 
29 30 1.0 31 1.0 32 1.0 
30 
31 
32 33 1.0 34 1.0 35 1.0 
33 
34 
35 36 1.0 37 1.0 38 1.0 
36 
37 
38 39 1.0 40 1.0 57 1.0 
39 
40 41 2.0 54 1.0 
41 
42 44 1.0 45 1.0 46 1.0 54 1.0 
43 47 1.0 48 1.0 49 1.0 54 1.0 
44 47 1.0 50 1.0 51 1.0 
45 
46 
47 52 1.0 53 1.0 
48 
49 
50 
51 
52 
53 
54 
55 56 2.0 57 1.0 68 1.0 
56 
57 58 1.0 
58 
59 60 1.5 64 1.5 65 1.0 
60 61 1.5 70 1.0 
61 62 1.5 66 1.0 
62 63 1.5 71 1.0 
63 64 1.5 67 1.0 
64 68 1.0 
65 
66 
67 
68 69 1.0 
69 
70 73 1.0 74 1.0 75 1.0 
71 72 2.0 76 1.0 
72 
73 
74 
75 
76 77 1.0 
77 78 1.0 79 1.0 80 1.0 
78 
79 
80 81 1.0 82 1.0 83 1.0 
81 
82 
83 84 1.0 85 1.0 86 1.0 
84 
85 
86 87 1.0 88 1.0 103 1.0 
87 
88 89 2.0 102 1.0 
89 
90 92 1.0 93 1.0 94 1.0 102 1.0 
91 95 1.0 96 1.0 97 1.0 102 1.0 
92 95 1.0 98 1.0 99 1.0 
93 
94 
95 100 1.0 101 1.0 
96 
97 
98 
99 
100 
101 
102 
103 104 1.0 
104 105 1.0 106 1.0 107 1.0 
105 
106 
107 108 1.0 109 1.0 110 1.0 
108 
109 
110 111 1.0 112 1.0 113 1.0 
111 
112 
113 114 1.0 115 1.0 132 1.0 
114 
115 116 2.0 129 1.0 
116 
117 119 1.0 120 1.0 121 1.0 129 1.0 
118 122 1.0 123 1.0 124 1.0 129 1.0 
119 122 1.0 125 1.0 126 1.0 
120 
121 
122 127 1.0 128 1.0 
123 
124 
125 
126 
127 
128 
129 
130 131 2.0 132 1.0 143 1.0 
131 
132 133 1.0 
133 
134 135 1.5 139 1.5 140 1.0 
135 136 1.5 145 1.0 
136 137 1.5 141 1.0 
137 138 1.5 146 1.0 
138 139 1.5 142 1.0 
139 143 1.0 
140 
141 
142 
143 144 1.0 
144 
145 148 1.0 149 1.0 150 1.0 
146 147 2.0 
147 
148 
149 
150 


