%mem=1GB
%nprocshared=12
#p geom=connect #p opt b3lyp m06-2x geom=connect scrf=(solvent=benzene) freq

00024

0 1
O   -3.816724   0.011190  -4.352958
C   -5.007852  -0.427757  -4.992795
H   -4.741698  -0.824159  -5.972783
H   -5.690979   0.404134  -5.171585
C   -5.692029  -1.525447  -4.159697
H   -6.014021  -1.103727  -3.207361
H   -6.601236  -1.846364  -4.668606
C   -4.780920  -2.745467  -3.918971
H   -4.487036  -3.166822  -4.881159
H   -3.848941  -2.416155  -3.457877
C   -5.435657  -3.861654  -3.066005
H   -6.243626  -4.280890  -3.666116
C   -4.456521  -5.014285  -2.726905
O   -3.239824  -4.831936  -2.826461
C   -4.125272  -7.350888  -1.984193
C   -6.376775  -6.516870  -2.137583
C   -5.087967  -8.526911  -1.812831
H   -3.596713  -7.144080  -1.052163
H   -3.379234  -7.553241  -2.754829
C   -6.409611  -7.873423  -1.431180
H   -6.856760  -6.584583  -3.115035
H   -6.901720  -5.759901  -1.552892
H   -5.199784  -9.050419  -2.763623
H   -4.743570  -9.251412  -1.073772
H   -7.276158  -8.474719  -1.709163
H   -6.443697  -7.722637  -0.351009
N   -4.960354  -6.198548  -2.319388
O   -6.046465  -3.338335  -1.876163
C   -5.184650  -2.755950  -0.903810
H   -4.534636  -2.051613  -1.406777
H   -4.560676  -3.500270  -0.407371
C   -6.057735  -2.011386   0.109911
H   -6.773635  -1.410668  -0.442863
H   -6.657317  -2.741560   0.654360
C   -5.287151  -1.142437   1.126289
H   -4.697046  -1.808614   1.754538
H   -6.008729  -0.693870   1.811007
C   -4.393433  -0.029827   0.516711
H   -4.405010  -0.088922  -0.570062
C   -4.796898   1.422924   0.827561
O   -4.089471   2.101708   1.577963
C   -6.134264   3.405039   0.248666
C   -6.849759   1.286439  -0.612956
C   -7.015460   3.673623  -0.968740
H   -6.662138   3.642194   1.173558
H   -5.225930   4.009674   0.214653
C   -7.774607   2.370279  -1.171016
H   -7.431027   0.595196  -0.003957
H   -6.375352   0.730367  -1.420280
H   -7.673098   4.533511  -0.835827
H   -6.386090   3.866791  -1.839261
H   -8.702105   2.393631  -0.596820
H   -8.037440   2.198642  -2.215734
N   -5.861152   1.971302   0.214686
C   -2.090431  -0.968387   0.357026
O   -2.281145  -1.615442  -0.668062
N   -3.017695  -0.221818   0.939143
H   -2.793334   0.301235   1.773321
C    0.433524  -2.656900  -0.096715
C    1.708727  -3.201862  -0.354748
C    2.848599  -2.621341   0.241304
C    2.729410  -1.497677   1.089526
C    1.448112  -0.949442   1.309119
C    0.301751  -1.508881   0.715561
H   -0.423802  -3.119959  -0.560052
H    3.821004  -3.046093   0.034999
H    1.348452  -0.079945   1.937761
N   -0.926763  -0.870881   0.996672
H   -0.893058  -0.216186   1.759151
C    1.868463  -4.376856  -1.302993
C    3.942391  -0.907938   1.720264
O    5.083999  -1.319243   1.504509
F    0.712742  -5.003934  -1.517726
F    2.736026  -5.255808  -0.804050
F    2.334043  -3.929729  -2.466600
O    3.661522   0.106263   2.562475
C    4.713157   0.732863   3.278301
H    5.467319   1.111850   2.586803
H    5.201051  -0.007641   3.913866
C    4.162041   1.874006   4.144197
H    3.367244   1.497127   4.789114
H    4.955414   2.217629   4.808518
C    3.651741   3.065747   3.316435
H    2.834841   2.738755   2.673690
H    4.442512   3.387991   2.637488
C    3.225270   4.272603   4.187538
H    4.101928   4.560471   4.768380
C    2.802099   5.507399   3.350565
O    2.496285   5.363205   2.163672
C    2.387933   7.944629   3.248089
C    3.072619   6.995741   5.350377
C    2.705769   9.088043   4.212918
H    1.319801   7.909950   3.027481
H    2.922191   8.057920   2.303051
C    2.637396   8.442480   5.590656
H    4.146696   6.889602   5.510100
H    2.558958   6.315152   6.031190
H    3.717945   9.451825   4.029223
H    2.024992   9.933531   4.106046
H    3.255710   8.953438   6.329820
H    1.607649   8.459735   5.951197
N    2.766325   6.717597   3.947101
O    2.213914   3.890835   5.135124
C    0.890103   3.717903   4.638987
H    0.927275   3.254268   3.662696
H    0.388188   4.679449   4.522287
C    0.115434   2.822263   5.609587
H    0.721814   1.949296   5.854956
H   -0.028447   3.359456   6.547577
C   -1.247574   2.350670   5.072144
H   -1.883014   3.209981   4.852287
H   -1.749825   1.828137   5.888779
C   -1.121697   1.418565   3.843594
H   -0.092542   1.079617   3.761048
C   -2.081372   0.228509   3.941806
O   -3.287174   0.441430   3.806948
C   -2.464128  -2.196277   3.953759
C   -0.232954  -1.423601   4.380884
C   -1.603528  -3.394803   4.341833
H   -2.788185  -2.293974   2.918922
H   -3.355817  -2.125338   4.579325
C   -0.178658  -2.923354   4.103376
H   -0.036947  -1.224699   5.435659
H    0.532717  -0.912786   3.807207
H   -1.742722  -3.618648   5.400631
H   -1.852002  -4.294339   3.777097
H    0.549093  -3.441952   4.728697
H    0.095520  -3.101394   3.063098
N   -1.605768  -1.021344   4.083128
C   -0.744431   2.300622   1.559314
O    0.467507   2.110925   1.560492
N   -1.507254   2.130585   2.632503
H   -2.509079   2.274706   2.525162
C   -0.166372   1.345000  -1.230039
C   -0.206507   0.527816  -2.376038
C   -1.391029   0.448585  -3.132494
C   -2.541059   1.177265  -2.750509
C   -2.482968   1.996310  -1.602989
C   -1.327785   2.026932  -0.799011
H    0.742349   1.353292  -0.650550
H   -1.408872  -0.214676  -3.985367
H   -3.369595   2.529832  -1.291289
N   -1.461146   2.613416   0.481326
H   -2.399145   2.928380   0.692316
C    0.974205  -0.350938  -2.742368
C   -3.836523   1.018917  -3.462056
O   -4.831346   1.703394  -3.220279
F    1.479167   0.033985  -3.910921
F    0.557606  -1.608878  -2.846325
F    1.936302  -0.311387  -1.823053

1 2 1.0 
2 3 1.0 4 1.0 5 1.0 
3 
4 
5 6 1.0 7 1.0 8 1.0 
6 
7 
8 9 1.0 10 1.0 11 1.0 
9 
10 
11 12 1.0 13 1.0 28 1.0 
12 
13 14 2.0 27 1.0 
14 
15 17 1.0 18 1.0 19 1.0 27 1.0 
16 20 1.0 21 1.0 22 1.0 27 1.0 
17 20 1.0 23 1.0 24 1.0 
18 
19 
20 25 1.0 26 1.0 
21 
22 
23 
24 
25 
26 
27 
28 29 1.0 
29 30 1.0 31 1.0 32 1.0 
30 
31 
32 33 1.0 34 1.0 35 1.0 
33 
34 
35 36 1.0 37 1.0 38 1.0 
36 
37 
38 39 1.0 40 1.0 57 1.0 
39 
40 41 2.0 54 1.0 
41 
42 44 1.0 45 1.0 46 1.0 54 1.0 
43 47 1.0 48 1.0 49 1.0 54 1.0 
44 47 1.0 50 1.0 51 1.0 
45 
46 
47 52 1.0 53 1.0 
48 
49 
50 
51 
52 
53 
54 
55 56 2.0 57 1.0 68 1.0 
56 
57 58 1.0 
58 
59 60 1.5 64 1.5 65 1.0 
60 61 1.5 70 1.0 
61 62 1.5 66 1.0 
62 63 1.5 71 1.0 
63 64 1.5 67 1.0 
64 68 1.0 
65 
66 
67 
68 69 1.0 
69 
70 73 1.0 74 1.0 75 1.0 
71 72 2.0 76 1.0 
72 
73 
74 
75 
76 77 1.0 
77 78 1.0 79 1.0 80 1.0 
78 
79 
80 81 1.0 82 1.0 83 1.0 
81 
82 
83 84 1.0 85 1.0 86 1.0 
84 
85 
86 87 1.0 88 1.0 103 1.0 
87 
88 89 2.0 102 1.0 
89 
90 92 1.0 93 1.0 94 1.0 102 1.0 
91 95 1.0 96 1.0 97 1.0 102 1.0 
92 95 1.0 98 1.0 99 1.0 
93 
94 
95 100 1.0 101 1.0 
96 
97 
98 
99 
100 
101 
102 
103 104 1.0 
104 105 1.0 106 1.0 107 1.0 
105 
106 
107 108 1.0 109 1.0 110 1.0 
108 
109 
110 111 1.0 112 1.0 113 1.0 
111 
112 
113 114 1.0 115 1.0 132 1.0 
114 
115 116 2.0 129 1.0 
116 
117 119 1.0 120 1.0 121 1.0 129 1.0 
118 122 1.0 123 1.0 124 1.0 129 1.0 
119 122 1.0 125 1.0 126 1.0 
120 
121 
122 127 1.0 128 1.0 
123 
124 
125 
126 
127 
128 
129 
130 131 2.0 132 1.0 143 1.0 
131 
132 133 1.0 
133 
134 135 1.5 139 1.5 140 1.0 
135 136 1.5 145 1.0 
136 137 1.5 141 1.0 
137 138 1.5 146 1.0 
138 139 1.5 142 1.0 
139 143 1.0 
140 
141 
142 
143 144 1.0 
144 
145 148 1.0 149 1.0 150 1.0 
146 147 2.0 
147 
148 
149 
150 


