%mem=1GB
%nprocshared=12
#p geom=connect #p opt b3lyp m06-2x geom=connect scrf=(solvent=benzene) freq

00014

0 1
O   -4.339736  -1.113587  -4.765979
C   -4.629622  -2.459285  -5.137044
H   -3.995359  -2.698401  -5.990764
H   -5.657433  -2.513694  -5.498067
C   -4.408457  -3.520284  -4.039428
H   -5.221188  -3.460550  -3.316262
H   -4.507096  -4.508914  -4.488484
C   -3.056737  -3.428597  -3.305634
H   -2.247287  -3.599925  -4.016376
H   -2.902790  -2.420018  -2.924297
C   -2.961652  -4.456981  -2.155566
H   -3.069695  -5.440930  -2.612618
C   -1.601357  -4.432286  -1.412249
O   -0.888585  -3.426259  -1.475903
C   -0.000288  -5.586031   0.073965
C   -2.032612  -6.728333  -0.499689
C    0.110193  -7.030370   0.558610
H   -0.087402  -4.908827   0.921418
H    0.867070  -5.286556  -0.517054
C   -1.334467  -7.507631   0.616395
H   -2.027459  -7.303386  -1.426876
H   -3.070106  -6.514906  -0.237182
H    0.664483  -7.621788  -0.171736
H    0.625509  -7.115563   1.516328
H   -1.429313  -8.588190   0.501947
H   -1.769833  -7.236722   1.579648
N   -1.243126  -5.510989  -0.685641
O   -4.073144  -4.295825  -1.256791
C   -3.998204  -3.220571  -0.328224
H   -3.595727  -2.339011  -0.822183
H   -3.330514  -3.497951   0.488066
C   -5.389382  -2.900107   0.226589
H   -6.018288  -2.510550  -0.574661
H   -5.854445  -3.834064   0.543545
C   -5.397895  -1.930042   1.428056
H   -4.852337  -2.360356   2.267033
H   -6.428664  -1.873258   1.781326
C   -4.930881  -0.486483   1.117404
H   -5.454191  -0.233839   0.200339
C   -5.275942   0.547759   2.197721
O   -4.848819   0.369419   3.339163
C   -6.282151   2.719587   2.815392
C   -6.549594   1.978511   0.567280
C   -6.458302   3.961230   1.947226
H   -7.211305   2.482114   3.335415
H   -5.518268   2.857621   3.577579
C   -7.068439   3.414038   0.665379
H   -7.350094   1.289064   0.294200
H   -5.789357   1.916196  -0.198485
H   -7.080225   4.721483   2.421430
H   -5.488070   4.411955   1.738110
H   -8.156037   3.403983   0.752561
H   -6.815102   4.014238  -0.209508
N   -5.995729   1.642118   1.876403
C   -2.453220  -0.918350   1.374434
O   -2.494813  -1.674569   2.341559
N   -3.515172  -0.358573   0.796806
H   -3.294472   0.293509   0.056797
C    0.353688  -2.157803   1.560946
C    1.687354  -2.614549   1.531176
C    2.634281  -1.946066   0.730518
C    2.277515  -0.794618  -0.004517
C    0.937985  -0.342676   0.037758
C   -0.029235  -1.025286   0.806374
H   -0.355517  -2.693274   2.171113
H    3.655619  -2.300704   0.727253
H    0.651608   0.540425  -0.518452
N   -1.344671  -0.513730   0.762392
H   -1.475525   0.270397   0.122880
C    2.131037  -3.792904   2.377085
C    3.339391  -0.057589  -0.738448
O    4.416633  -0.562873  -1.057924
F    2.659579  -4.731597   1.596210
F    3.056811  -3.376193   3.237463
F    1.125686  -4.329245   3.065935
O    3.038362   1.242938  -0.909355
C    4.052347   2.175758  -1.262334
H    3.976185   2.371557  -2.332166
H    5.054739   1.783361  -1.083795
C    3.874494   3.487784  -0.473120
H    4.526871   4.236338  -0.923334
H    2.860485   3.862723  -0.615889
C    4.210566   3.416193   1.037635
H    4.176063   4.425948   1.447880
H    5.240934   3.082689   1.166870
C    3.272423   2.499044   1.852954
H    3.460325   1.483782   1.520639
C    3.528104   2.463964   3.377640
O    4.197520   3.355486   3.904951
C    3.092694   1.347257   5.548198
C    2.218972   0.332771   3.554942
C    2.602778  -0.060340   5.895394
H    2.459088   2.103618   6.014079
H    4.116448   1.509794   5.890056
C    1.660011  -0.424657   4.757507
H    1.421399   0.640828   2.879296
H    2.907064  -0.305667   3.001140
H    3.448089  -0.750309   5.902691
H    2.124710  -0.112194   6.874413
H    1.596255  -1.500090   4.588528
H    0.655652  -0.070848   4.984734
N    2.973055   1.463329   4.097146
O    1.907254   2.805570   1.558228
C    1.361708   4.023931   2.063103
H    1.805646   4.887755   1.567403
H    1.526672   4.141867   3.134122
C   -0.145974   3.972776   1.815422
H   -0.624747   4.801029   2.338936
H   -0.343412   4.118420   0.753175
C   -0.724304   2.623253   2.272337
H   -0.279930   2.365763   3.232559
H   -0.376113   1.848344   1.593026
C   -2.255561   2.546912   2.385545
H   -2.546933   1.508903   2.453875
C   -2.798973   3.237975   3.635257
O   -3.298911   4.361681   3.519236
C   -3.282025   3.168155   6.050156
C   -2.143697   1.285571   5.083090
C   -2.829181   2.241415   7.179334
H   -4.370801   3.183674   5.977950
H   -2.941660   4.192396   6.212601
C   -2.599093   0.903986   6.490296
H   -1.059948   1.383183   5.065773
H   -2.429752   0.513765   4.368878
H   -1.888890   2.604297   7.597338
H   -3.553126   2.180446   7.992852
H   -1.877804   0.274013   7.012416
H   -3.540163   0.354385   6.431209
N   -2.736592   2.598951   4.820249
C   -2.830434   2.674420  -0.024978
O   -2.056207   1.790372  -0.388441
N   -2.926963   3.102749   1.223191
H   -3.564902   3.853804   1.448866
C   -3.905255   3.639421  -3.258072
C   -4.132750   3.137372  -4.559761
C   -4.454850   1.771447  -4.736458
C   -4.562392   0.914629  -3.618818
C   -4.304499   1.419741  -2.334988
C   -3.959194   2.774633  -2.147664
H   -3.661310   4.683682  -3.127532
H   -4.650059   1.390643  -5.728891
H   -4.369023   0.745445  -1.497495
N   -3.687562   3.261082  -0.850564
H   -4.174652   4.091204  -0.548156
C   -4.054395   4.073047  -5.754983
C   -4.967339  -0.499612  -3.746446
O   -5.750585  -1.039472  -2.963934
F   -3.796807   3.403422  -6.877843
F   -3.093980   4.979714  -5.579694
F   -5.218071   4.704087  -5.891482

1 2 1.0 
2 3 1.0 4 1.0 5 1.0 
3 
4 
5 6 1.0 7 1.0 8 1.0 
6 
7 
8 9 1.0 10 1.0 11 1.0 
9 
10 
11 12 1.0 13 1.0 28 1.0 
12 
13 14 2.0 27 1.0 
14 
15 17 1.0 18 1.0 19 1.0 27 1.0 
16 20 1.0 21 1.0 22 1.0 27 1.0 
17 20 1.0 23 1.0 24 1.0 
18 
19 
20 25 1.0 26 1.0 
21 
22 
23 
24 
25 
26 
27 
28 29 1.0 
29 30 1.0 31 1.0 32 1.0 
30 
31 
32 33 1.0 34 1.0 35 1.0 
33 
34 
35 36 1.0 37 1.0 38 1.0 
36 
37 
38 39 1.0 40 1.0 57 1.0 
39 
40 41 2.0 54 1.0 
41 
42 44 1.0 45 1.0 46 1.0 54 1.0 
43 47 1.0 48 1.0 49 1.0 54 1.0 
44 47 1.0 50 1.0 51 1.0 
45 
46 
47 52 1.0 53 1.0 
48 
49 
50 
51 
52 
53 
54 
55 56 2.0 57 1.0 68 1.0 
56 
57 58 1.0 
58 
59 60 1.5 64 1.5 65 1.0 
60 61 1.5 70 1.0 
61 62 1.5 66 1.0 
62 63 1.5 71 1.0 
63 64 1.5 67 1.0 
64 68 1.0 
65 
66 
67 
68 69 1.0 
69 
70 73 1.0 74 1.0 75 1.0 
71 72 2.0 76 1.0 
72 
73 
74 
75 
76 77 1.0 
77 78 1.0 79 1.0 80 1.0 
78 
79 
80 81 1.0 82 1.0 83 1.0 
81 
82 
83 84 1.0 85 1.0 86 1.0 
84 
85 
86 87 1.0 88 1.0 103 1.0 
87 
88 89 2.0 102 1.0 
89 
90 92 1.0 93 1.0 94 1.0 102 1.0 
91 95 1.0 96 1.0 97 1.0 102 1.0 
92 95 1.0 98 1.0 99 1.0 
93 
94 
95 100 1.0 101 1.0 
96 
97 
98 
99 
100 
101 
102 
103 104 1.0 
104 105 1.0 106 1.0 107 1.0 
105 
106 
107 108 1.0 109 1.0 110 1.0 
108 
109 
110 111 1.0 112 1.0 113 1.0 
111 
112 
113 114 1.0 115 1.0 132 1.0 
114 
115 116 2.0 129 1.0 
116 
117 119 1.0 120 1.0 121 1.0 129 1.0 
118 122 1.0 123 1.0 124 1.0 129 1.0 
119 122 1.0 125 1.0 126 1.0 
120 
121 
122 127 1.0 128 1.0 
123 
124 
125 
126 
127 
128 
129 
130 131 2.0 132 1.0 143 1.0 
131 
132 133 1.0 
133 
134 135 1.5 139 1.5 140 1.0 
135 136 1.5 145 1.0 
136 137 1.5 141 1.0 
137 138 1.5 146 1.0 
138 139 1.5 142 1.0 
139 143 1.0 
140 
141 
142 
143 144 1.0 
144 
145 148 1.0 149 1.0 150 1.0 
146 147 2.0 
147 
148 
149 
150 


