%mem=1GB
%nprocshared=12
#p geom=connect #p opt b3lyp m06-2x geom=connect scrf=(solvent=benzene) freq

00002

0 1
O   -4.173241  -0.441282  -3.811653
C   -5.173082  -1.339214  -4.273503
H   -5.013456  -1.493376  -5.340752
H   -6.164769  -0.897878  -4.163730
C   -5.091001  -2.691067  -3.540843
H   -5.517462  -2.562207  -2.546097
H   -5.731298  -3.417995  -4.040985
C   -3.653343  -3.243277  -3.426626
H   -3.275246  -3.482736  -4.421223
H   -2.986650  -2.472385  -3.043224
C   -3.547982  -4.488956  -2.522451
H   -4.054775  -5.305191  -3.038120
C   -2.080246  -4.921447  -2.261127
O   -1.157961  -4.142236  -2.520116
C   -0.509263  -6.631910  -1.411197
C   -2.862120  -7.123997  -1.356035
C   -0.683242  -8.107340  -1.052020
H   -0.121417  -6.071990  -0.559218
H    0.181080  -6.503096  -2.246152
C   -2.122038  -8.202402  -0.562787
H   -3.295673  -7.546704  -2.263621
H   -3.669733  -6.692472  -0.763029
H   -0.559041  -8.719578  -1.946587
H    0.040880  -8.450108  -0.311803
H   -2.551072  -9.196219  -0.696812
H   -2.161636  -7.965124   0.501583
N   -1.847465  -6.136755  -1.724294
O   -4.267380  -4.259192  -1.299823
C   -3.653539  -3.417676  -0.330746
H   -3.253869  -2.519839  -0.799184
H   -2.834023  -3.961952   0.138019
C   -4.685487  -3.032380   0.731912
H   -5.381784  -2.293725   0.332954
H   -5.282754  -3.918861   0.948589
C   -4.076028  -2.553080   2.063192
H   -3.310253  -3.250634   2.401071
H   -4.854890  -2.658755   2.817361
C   -3.562980  -1.088837   2.087605
H   -4.360470  -0.456526   1.697328
C   -3.258649  -0.573065   3.506892
O   -2.089514  -0.490589   3.885288
C   -4.085079  -0.039231   5.765156
C   -5.691300  -0.127357   3.978683
C   -5.470902   0.227495   6.361152
H   -3.658491  -0.946193   6.197354
H   -3.393421   0.776389   5.975417
C   -6.452620  -0.248264   5.298063
H   -6.044401  -0.869859   3.265053
H   -5.852027   0.855235   3.532062
H   -5.616411  -0.280961   7.315128
H   -5.608786   1.292092   6.543848
H   -6.702652  -1.295057   5.477729
H   -7.384844   0.318096   5.300197
N   -4.276200  -0.245378   4.329304
C   -1.353048  -1.559129   0.977058
O   -1.102424  -2.635453   1.516025
N   -2.448962  -0.834139   1.180577
H   -2.512576   0.049870   0.700422
C    1.076030  -2.704173  -0.608518
C    2.380703  -2.993080  -1.065223
C    3.323613  -1.946433  -1.214631
C    2.970808  -0.614991  -0.899837
C    1.667202  -0.360334  -0.428979
C    0.720772  -1.378302  -0.296007
H    0.357152  -3.505164  -0.519581
H    4.317284  -2.164940  -1.579096
H    1.369214   0.633969  -0.160119
N   -0.571160  -0.975090   0.080968
H   -0.858172  -0.062268  -0.235550
C    2.736221  -4.426433  -1.412427
C    3.928949   0.512425  -1.063150
O    5.106717   0.378796  -1.394879
F    2.120708  -4.768474  -2.540759
F    4.048649  -4.583383  -1.575678
F    2.333730  -5.242370  -0.440672
O    3.343594   1.695947  -0.801482
C    4.072313   2.906169  -0.812844
H    4.464088   3.073281  -1.817119
H    4.923133   2.859573  -0.131886
C    3.110283   4.045136  -0.424866
H    3.580541   4.984614  -0.716735
H    2.205404   3.979012  -1.029456
C    2.736285   4.162580   1.074176
H    2.089331   5.034962   1.170552
H    3.625362   4.414013   1.653818
C    2.000639   2.951022   1.702423
H    1.409584   2.496238   0.915966
C    2.930203   1.849811   2.270263
O    4.151953   2.017470   2.247241
C    3.226772  -0.475396   3.005312
C    0.994929   0.416165   3.004918
C    2.253857  -1.635230   3.179693
H    3.782776  -0.293592   3.926504
H    3.947592  -0.679290   2.211209
C    0.985382  -0.960900   3.667478
H    0.575119   1.145026   3.693044
H    0.409908   0.429847   2.091433
H    2.068949  -2.115309   2.217908
H    2.620911  -2.398122   3.867150
H    0.101932  -1.554914   3.454481
H    1.032919  -0.840074   4.750700
N    2.398293   0.692335   2.710611
O    1.041288   3.411232   2.655534
C    1.493162   3.828521   3.940005
H    2.271920   4.583825   3.825689
H    1.928438   3.003520   4.504838
C    0.319201   4.426742   4.736571
H    0.748199   4.843935   5.648453
H   -0.086098   5.286631   4.206132
C   -0.796225   3.436452   5.172451
H   -1.232013   3.816532   6.097886
H   -0.345660   2.483959   5.453477
C   -1.967767   3.188977   4.190208
H   -2.583359   2.390290   4.593920
C   -2.812702   4.458486   3.928699
O   -2.370961   5.318357   3.161171
C   -4.835555   5.799092   4.384224
C   -4.679428   3.616080   5.369807
C   -5.935983   5.673453   5.438162
H   -5.260479   5.811581   3.379204
H   -4.258440   6.716097   4.516408
C   -6.075860   4.172603   5.650625
H   -4.118552   3.476011   6.295240
H   -4.756925   2.658493   4.855896
H   -5.609814   6.145493   6.366242
H   -6.869672   6.148370   5.134243
H   -6.439975   3.917570   6.646652
H   -6.783171   3.765240   4.926351
N   -4.008734   4.603853   4.531466
C   -2.107500   2.334252   1.881777
O   -3.320755   2.130475   1.888438
N   -1.419917   2.685013   2.952776
H   -0.430029   2.887273   2.833704
C   -0.514179   1.927906  -1.395063
C   -0.606203   1.325711  -2.660454
C   -1.821975   0.740429  -3.060463
C   -2.948240   0.757438  -2.202770
C   -2.828981   1.340306  -0.924710
C   -1.592402   1.876240  -0.498545
H    0.428877   2.354753  -1.093761
H   -1.862315   0.258038  -4.026650
H   -3.689898   1.304508  -0.273534
N   -1.300710   2.245519   0.828753
H   -0.352272   2.539253   1.005128
C    0.629313   1.205309  -3.530626
C   -4.226439   0.099257  -2.580606
O   -5.197942   0.010401  -1.827667
F    1.552982   2.107077  -3.201147
F    0.319846   1.360044  -4.816070
F    1.143953  -0.007913  -3.351787

1 2 1.0 
2 3 1.0 4 1.0 5 1.0 
3 
4 
5 6 1.0 7 1.0 8 1.0 
6 
7 
8 9 1.0 10 1.0 11 1.0 
9 
10 
11 12 1.0 13 1.0 28 1.0 
12 
13 14 2.0 27 1.0 
14 
15 17 1.0 18 1.0 19 1.0 27 1.0 
16 20 1.0 21 1.0 22 1.0 27 1.0 
17 20 1.0 23 1.0 24 1.0 
18 
19 
20 25 1.0 26 1.0 
21 
22 
23 
24 
25 
26 
27 
28 29 1.0 
29 30 1.0 31 1.0 32 1.0 
30 
31 
32 33 1.0 34 1.0 35 1.0 
33 
34 
35 36 1.0 37 1.0 38 1.0 
36 
37 
38 39 1.0 40 1.0 57 1.0 
39 
40 41 2.0 54 1.0 
41 
42 44 1.0 45 1.0 46 1.0 54 1.0 
43 47 1.0 48 1.0 49 1.0 54 1.0 
44 47 1.0 50 1.0 51 1.0 
45 
46 
47 52 1.0 53 1.0 
48 
49 
50 
51 
52 
53 
54 
55 56 2.0 57 1.0 68 1.0 
56 
57 58 1.0 
58 
59 60 1.5 64 1.5 65 1.0 
60 61 1.5 70 1.0 
61 62 1.5 66 1.0 
62 63 1.5 71 1.0 
63 64 1.5 67 1.0 
64 68 1.0 
65 
66 
67 
68 69 1.0 
69 
70 73 1.0 74 1.0 75 1.0 
71 72 2.0 76 1.0 
72 
73 
74 
75 
76 77 1.0 
77 78 1.0 79 1.0 80 1.0 
78 
79 
80 81 1.0 82 1.0 83 1.0 
81 
82 
83 84 1.0 85 1.0 86 1.0 
84 
85 
86 87 1.0 88 1.0 103 1.0 
87 
88 89 2.0 102 1.0 
89 
90 92 1.0 93 1.0 94 1.0 102 1.0 
91 95 1.0 96 1.0 97 1.0 102 1.0 
92 95 1.0 98 1.0 99 1.0 
93 
94 
95 100 1.0 101 1.0 
96 
97 
98 
99 
100 
101 
102 
103 104 1.0 
104 105 1.0 106 1.0 107 1.0 
105 
106 
107 108 1.0 109 1.0 110 1.0 
108 
109 
110 111 1.0 112 1.0 113 1.0 
111 
112 
113 114 1.0 115 1.0 132 1.0 
114 
115 116 2.0 129 1.0 
116 
117 119 1.0 120 1.0 121 1.0 129 1.0 
118 122 1.0 123 1.0 124 1.0 129 1.0 
119 122 1.0 125 1.0 126 1.0 
120 
121 
122 127 1.0 128 1.0 
123 
124 
125 
126 
127 
128 
129 
130 131 2.0 132 1.0 143 1.0 
131 
132 133 1.0 
133 
134 135 1.5 139 1.5 140 1.0 
135 136 1.5 145 1.0 
136 137 1.5 141 1.0 
137 138 1.5 146 1.0 
138 139 1.5 142 1.0 
139 143 1.0 
140 
141 
142 
143 144 1.0 
144 
145 148 1.0 149 1.0 150 1.0 
146 147 2.0 
147 
148 
149 
150 


