%mem=1GB
%nprocshared=12
#p geom=connect #p opt b3lyp m06-2x geom=connect scrf=(solvent=benzene) freq

00009

0 1
O   -2.321822  -0.722139  -3.661944
C   -1.608021  -1.832733  -4.194075
H   -0.558597  -1.752654  -3.909448
H   -1.624308  -1.803557  -5.284946
C   -2.193397  -3.161256  -3.693733
H   -3.279341  -3.085811  -3.626032
H   -1.999412  -3.938620  -4.433342
C   -1.590005  -3.608094  -2.354858
H   -0.599625  -4.023382  -2.548302
H   -1.403204  -2.748047  -1.711832
C   -2.460097  -4.666384  -1.631974
H   -2.623549  -5.484813  -2.333806
C   -1.751291  -5.271819  -0.395231
O   -0.756893  -4.707847   0.066557
C   -1.633264  -7.048043   1.319539
C   -3.415524  -7.145160  -0.295005
C   -2.328844  -8.403665   1.450626
H   -1.816508  -6.431098   2.200850
H   -0.553129  -7.160873   1.208887
C   -3.683554  -8.192856   0.787144
H   -3.190065  -7.628253  -1.246922
H   -4.285107  -6.502088  -0.437934
H   -1.765595  -9.159072   0.900481
H   -2.410446  -8.738941   2.485347
H   -4.108441  -9.114701   0.387899
H   -4.388723  -7.792170   1.517125
N   -2.239475  -6.401916   0.156686
O   -3.756965  -4.146428  -1.287965
C   -3.761387  -3.005554  -0.438966
H   -3.346460  -2.170578  -0.996676
H   -3.151268  -3.178181   0.446728
C   -5.177765  -2.632301  -0.001365
H   -5.759934  -2.312018  -0.865984
H   -5.667061  -3.530665   0.376389
C   -5.220742  -1.557215   1.106357
H   -4.683790  -1.900614   1.990319
H   -6.258591  -1.482299   1.434682
C   -4.764644  -0.140157   0.679613
H   -5.263927   0.043106  -0.267061
C   -5.121020   0.970910   1.674344
O   -4.563893   0.983509   2.772717
C   -6.171997   3.161066   2.084697
C   -6.856057   1.943100   0.140118
C   -6.795691   4.154247   1.109233
H   -6.849463   2.953680   2.914501
H   -5.245002   3.546364   2.505250
C   -7.609132   3.273675   0.171898
H   -7.549714   1.101124   0.167276
H   -6.284513   1.859186  -0.777245
H   -7.400935   4.911645   1.609155
H   -6.014798   4.671105   0.550474
H   -8.604838   3.118757   0.590521
H   -7.735808   3.713108  -0.818372
N   -5.986523   1.937137   1.314810
C   -2.279451  -0.490615   0.961801
O   -2.308840  -1.192407   1.970235
N   -3.353098  -0.006707   0.342160
H   -3.173604   0.577304  -0.458636
C    0.402030  -1.909479   0.930531
C    1.701132  -2.449101   0.865186
C    2.713477  -1.737291   0.191567
C    2.455416  -0.468799  -0.374155
C    1.147511   0.066284  -0.293359
C    0.116790  -0.652580   0.351303
H   -0.359955  -2.484825   1.432223
H    3.708718  -2.158111   0.155054
H    0.937883   1.040529  -0.716014
N   -1.168584  -0.068581   0.364632
H   -1.262056   0.767050  -0.211257
C    2.029022  -3.771020   1.535703
C    3.591081   0.286600  -0.968726
O    4.637530  -0.248864  -1.337922
F    2.227772  -4.707062   0.611364
F    3.143966  -3.627650   2.248870
F    1.063270  -4.172993   2.360475
O    3.395316   1.618245  -0.956268
C    4.496344   2.502530  -1.138429
H    4.528482   2.795156  -2.188243
H    5.448267   2.017186  -0.916810
C    4.352702   3.752964  -0.246957
H    5.105423   4.475287  -0.563567
H    3.392424   4.228941  -0.447337
C    4.528441   3.523051   1.276440
H    4.512888   4.490483   1.779483
H    5.515743   3.103480   1.473001
C    3.452291   2.605938   1.893667
H    3.613244   1.619286   1.473436
C    3.521991   2.397895   3.424987
O    4.129202   3.212096   4.124441
C    2.715527   1.116400   5.391753
C    2.217189   0.272406   3.200399
C    2.191959  -0.314476   5.537520
H    1.996958   1.833151   5.792508
H    3.658360   1.253095   5.924403
C    1.500243  -0.615323   4.214457
H    1.519560   0.655113   2.457918
H    2.987673  -0.300632   2.683625
H    3.032829  -0.996983   5.670279
H    1.530324  -0.435857   6.396215
H    1.546547  -1.672699   3.950876
H    0.446816  -0.344867   4.265946
N    2.856515   1.347863   3.957339
O    2.153391   3.047371   1.492487
C    1.646760   4.266558   2.039782
H    2.091367   5.128939   1.542172
H    1.848156   4.372966   3.105293
C    0.129864   4.239340   1.845326
H   -0.328588   5.044566   2.420405
H   -0.102830   4.429865   0.797748
C   -0.429029   2.871937   2.267697
H    0.024995   2.595652   3.218352
H   -0.077623   2.117296   1.567534
C   -1.953546   2.747266   2.378789
H   -2.191105   1.694082   2.400174
C   -2.521151   3.350834   3.665022
O   -3.052810   4.464542   3.612470
C   -2.957836   3.153129   6.083202
C   -1.834988   1.328381   4.996528
C   -2.442248   2.193940   7.156870
H   -4.048345   3.140007   6.044536
H   -2.640958   4.179132   6.278881
C   -2.218823   0.887765   6.408522
H   -0.752742   1.423995   4.928783
H   -2.168852   0.591638   4.264796
H   -1.491293   2.558442   7.548558
H   -3.129913   2.089643   7.997028
H   -1.462212   0.254563   6.873800
H   -3.150825   0.321256   6.373224
N   -2.436853   2.650646   4.814076
C   -2.541305   2.995910  -0.026972
O   -1.545870   2.455993  -0.505186
N   -2.670692   3.316796   1.249398
H   -3.461929   3.874698   1.537491
C   -5.130260   3.313237  -2.598470
C   -5.671345   2.765487  -3.776326
C   -5.098187   1.599831  -4.326838
C   -3.984694   0.980621  -3.712926
C   -3.457357   1.540834  -2.528933
C   -4.038661   2.699193  -1.957716
H   -5.597626   4.187267  -2.168305
H   -5.525623   1.175458  -5.224501
H   -2.616420   1.050204  -2.067389
N   -3.659299   3.228898  -0.703401
H   -4.355943   3.792439  -0.240942
C   -6.897852   3.407258  -4.397893
C   -3.406072  -0.249263  -4.320197
O   -3.872192  -0.776175  -5.332426
F   -7.054350   3.043467  -5.669893
F   -6.800350   4.734148  -4.346674
F   -7.971907   3.032223  -3.707201

1 2 1.0 
2 3 1.0 4 1.0 5 1.0 
3 
4 
5 6 1.0 7 1.0 8 1.0 
6 
7 
8 9 1.0 10 1.0 11 1.0 
9 
10 
11 12 1.0 13 1.0 28 1.0 
12 
13 14 2.0 27 1.0 
14 
15 17 1.0 18 1.0 19 1.0 27 1.0 
16 20 1.0 21 1.0 22 1.0 27 1.0 
17 20 1.0 23 1.0 24 1.0 
18 
19 
20 25 1.0 26 1.0 
21 
22 
23 
24 
25 
26 
27 
28 29 1.0 
29 30 1.0 31 1.0 32 1.0 
30 
31 
32 33 1.0 34 1.0 35 1.0 
33 
34 
35 36 1.0 37 1.0 38 1.0 
36 
37 
38 39 1.0 40 1.0 57 1.0 
39 
40 41 2.0 54 1.0 
41 
42 44 1.0 45 1.0 46 1.0 54 1.0 
43 47 1.0 48 1.0 49 1.0 54 1.0 
44 47 1.0 50 1.0 51 1.0 
45 
46 
47 52 1.0 53 1.0 
48 
49 
50 
51 
52 
53 
54 
55 56 2.0 57 1.0 68 1.0 
56 
57 58 1.0 
58 
59 60 1.5 64 1.5 65 1.0 
60 61 1.5 70 1.0 
61 62 1.5 66 1.0 
62 63 1.5 71 1.0 
63 64 1.5 67 1.0 
64 68 1.0 
65 
66 
67 
68 69 1.0 
69 
70 73 1.0 74 1.0 75 1.0 
71 72 2.0 76 1.0 
72 
73 
74 
75 
76 77 1.0 
77 78 1.0 79 1.0 80 1.0 
78 
79 
80 81 1.0 82 1.0 83 1.0 
81 
82 
83 84 1.0 85 1.0 86 1.0 
84 
85 
86 87 1.0 88 1.0 103 1.0 
87 
88 89 2.0 102 1.0 
89 
90 92 1.0 93 1.0 94 1.0 102 1.0 
91 95 1.0 96 1.0 97 1.0 102 1.0 
92 95 1.0 98 1.0 99 1.0 
93 
94 
95 100 1.0 101 1.0 
96 
97 
98 
99 
100 
101 
102 
103 104 1.0 
104 105 1.0 106 1.0 107 1.0 
105 
106 
107 108 1.0 109 1.0 110 1.0 
108 
109 
110 111 1.0 112 1.0 113 1.0 
111 
112 
113 114 1.0 115 1.0 132 1.0 
114 
115 116 2.0 129 1.0 
116 
117 119 1.0 120 1.0 121 1.0 129 1.0 
118 122 1.0 123 1.0 124 1.0 129 1.0 
119 122 1.0 125 1.0 126 1.0 
120 
121 
122 127 1.0 128 1.0 
123 
124 
125 
126 
127 
128 
129 
130 131 2.0 132 1.0 143 1.0 
131 
132 133 1.0 
133 
134 135 1.5 139 1.5 140 1.0 
135 136 1.5 145 1.0 
136 137 1.5 141 1.0 
137 138 1.5 146 1.0 
138 139 1.5 142 1.0 
139 143 1.0 
140 
141 
142 
143 144 1.0 
144 
145 148 1.0 149 1.0 150 1.0 
146 147 2.0 
147 
148 
149 
150 


