%mem=1GB
%nprocshared=12
#p geom=connect #p opt b3lyp m06-2x geom=connect scrf=(solvent=benzene) freq

00030

0 1
O   -4.203136  -1.105634  -4.705089
C   -5.246866  -1.936105  -5.190562
H   -5.017016  -2.183702  -6.226978
H   -6.198006  -1.401585  -5.198711
C   -5.349584  -3.230328  -4.366068
H   -5.850181  -2.995509  -3.427849
H   -6.001482  -3.936173  -4.881333
C   -3.981668  -3.886785  -4.077724
H   -3.471732  -4.094111  -5.019194
H   -3.343985  -3.173005  -3.557309
C   -4.079909  -5.198316  -3.262178
H   -4.455459  -5.962400  -3.942988
C   -2.712970  -5.670434  -2.700783
O   -1.794137  -4.856654  -2.567016
C   -1.331203  -7.510880  -1.791660
C   -3.594992  -8.001724  -2.437269
C   -1.516891  -9.028283  -1.780172
H   -1.211848  -7.133876  -0.775173
H   -0.452306  -7.215417  -2.367618
C   -3.026267  -9.214033  -1.697862
H   -3.769387  -8.244160  -3.486675
H   -4.542606  -7.683929  -1.999013
H   -1.145639  -9.450509  -2.715277
H   -0.983737  -9.513432  -0.961572
H   -3.360632 -10.162647  -2.119827
H   -3.341046  -9.186561  -0.653418
N   -2.567058  -6.964662  -2.348147
O   -5.053970  -5.073758  -2.215885
C   -4.735730  -4.200408  -1.138607
H   -4.226804  -3.320394  -1.518424
H   -4.071833  -4.695086  -0.428389
C   -6.045463  -3.784936  -0.464399
H   -6.714540  -3.344668  -1.203983
H   -6.546812  -4.686343  -0.110512
C   -5.884946  -2.817122   0.721355
H   -5.247995  -3.247750   1.492458
H   -6.863910  -2.754787   1.199342
C   -5.470125  -1.370219   0.345472
H   -6.091514  -1.121914  -0.510851
C   -5.717267  -0.337631   1.450220
O   -5.356452  -0.603946   2.599183
C   -6.412039   1.935449   2.089353
C   -6.734016   1.281461  -0.187751
C   -6.542395   3.202001   1.246058
H   -5.557487   1.979355   2.758132
H   -7.304730   1.770923   2.694232
C   -7.230815   2.717911  -0.020044
H   -7.525789   0.639158  -0.576212
H   -5.903875   1.255522  -0.886761
H   -7.090939   3.997871   1.750640
H   -5.550491   3.582875   0.998570
H   -8.311918   2.718750   0.127235
H   -7.012706   3.344428  -0.885851
N   -6.276727   0.847520   1.132220
C   -2.979575  -1.736516   0.348765
O   -2.925321  -2.736541   1.061480
N   -4.097046  -1.176877  -0.107447
H   -3.970596  -0.344390  -0.661375
C   -0.234520  -2.864819  -0.331201
C    1.115841  -3.235350  -0.493941
C    2.124060  -2.251495  -0.389862
C    1.789591  -0.904504  -0.121241
C    0.433586  -0.559124   0.073525
C   -0.577249  -1.522404  -0.060955
H   -0.998319  -3.616734  -0.463225
H    3.156271  -2.529401  -0.549650
H    0.150220   0.461608   0.285040
N   -1.909692  -1.062776  -0.054316
H   -2.068121  -0.123440  -0.388657
C    1.456237  -4.669020  -0.856773
C    2.849941   0.133831  -0.078583
O    4.055840  -0.112866  -0.129669
F    2.729438  -4.952260  -0.585550
F    1.247330  -4.846001  -2.158355
F    0.685171  -5.516410  -0.178933
O    2.336226   1.373112   0.032550
C    3.165630   2.487195   0.309334
H    2.591223   3.382539   0.071303
H    4.053607   2.500113  -0.324543
C    3.535004   2.478695   1.800158
H    2.744550   1.974983   2.355311
H    4.428326   1.872768   1.956011
C    3.734489   3.880996   2.390750
H    2.894307   4.519449   2.116517
H    4.618126   4.339882   1.944875
C    3.884954   3.835234   3.927494
H    4.728142   3.178219   4.143042
C    4.207127   5.210679   4.563459
O    4.019399   6.240332   3.909558
C    5.026092   6.495164   6.513084
C    4.918303   4.098585   6.696067
C    5.743277   6.076672   7.797523
H    4.107569   7.037971   6.742014
H    5.653489   7.142104   5.897269
C    5.212767   4.677533   8.081142
H    5.779882   3.541313   6.325180
H    4.064382   3.420352   6.730296
H    6.818652   6.030787   7.618497
H    5.573668   6.770192   8.622145
H    5.911091   4.067311   8.655370
H    4.286150   4.747441   8.653121
N    4.681489   5.251266   5.826530
O    2.726049   3.231552   4.523757
C    1.492620   3.946433   4.473542
H    1.581846   4.935303   4.022484
H    1.161597   4.105000   5.500563
C    0.446499   3.126515   3.705778
H    0.761242   3.015518   2.669310
H    0.385608   2.121590   4.125065
C   -0.931467   3.796336   3.763200
H   -0.849554   4.823217   3.400291
H   -1.221526   3.879358   4.812473
C   -2.034480   3.051543   2.986370
H   -2.099780   2.011260   3.305010
C   -3.343118   3.823315   3.238362
O   -3.626362   4.778966   2.509830
C   -5.286801   4.243529   4.701965
C   -3.925538   2.311518   5.152021
C   -5.716999   3.653145   6.044557
H   -6.076927   4.128164   3.960677
H   -5.065503   5.308830   4.787840
C   -5.187060   2.226603   6.011432
H   -3.042496   2.458336   5.775541
H   -3.797072   1.389059   4.583012
H   -5.238224   4.202380   6.856733
H   -6.795283   3.701381   6.201649
H   -4.995687   1.821234   7.005762
H   -5.916629   1.577476   5.523916
N   -4.113419   3.477183   4.288432
C   -2.266023   2.352520   0.635032
O   -3.156466   1.534384   0.855206
N   -1.695618   3.097147   1.573020
H   -1.017970   3.790462   1.303380
C   -0.602587   1.328544  -2.276284
C   -0.598953   0.330133  -3.267914
C   -1.821661  -0.212463  -3.708311
C   -3.051148   0.223643  -3.156514
C   -3.035000   1.197443  -2.134639
C   -1.809371   1.715323  -1.668961
H    0.336836   1.718444  -1.912568
H   -1.790201  -0.997681  -4.450289
H   -3.958088   1.531219  -1.687847
N   -1.730703   2.577124  -0.562870
H   -0.991881   3.262219  -0.595655
C    0.711617  -0.253063  -3.759537
C   -4.338222  -0.381290  -3.581935
O   -5.391219  -0.257485  -2.955703
F    0.686389  -0.424465  -5.079346
F    0.877490  -1.434078  -3.170118
F    1.748313   0.522110  -3.443995

1 2 1.0 
2 3 1.0 4 1.0 5 1.0 
3 
4 
5 6 1.0 7 1.0 8 1.0 
6 
7 
8 9 1.0 10 1.0 11 1.0 
9 
10 
11 12 1.0 13 1.0 28 1.0 
12 
13 14 2.0 27 1.0 
14 
15 17 1.0 18 1.0 19 1.0 27 1.0 
16 20 1.0 21 1.0 22 1.0 27 1.0 
17 20 1.0 23 1.0 24 1.0 
18 
19 
20 25 1.0 26 1.0 
21 
22 
23 
24 
25 
26 
27 
28 29 1.0 
29 30 1.0 31 1.0 32 1.0 
30 
31 
32 33 1.0 34 1.0 35 1.0 
33 
34 
35 36 1.0 37 1.0 38 1.0 
36 
37 
38 39 1.0 40 1.0 57 1.0 
39 
40 41 2.0 54 1.0 
41 
42 44 1.0 45 1.0 46 1.0 54 1.0 
43 47 1.0 48 1.0 49 1.0 54 1.0 
44 47 1.0 50 1.0 51 1.0 
45 
46 
47 52 1.0 53 1.0 
48 
49 
50 
51 
52 
53 
54 
55 56 2.0 57 1.0 68 1.0 
56 
57 58 1.0 
58 
59 60 1.5 64 1.5 65 1.0 
60 61 1.5 70 1.0 
61 62 1.5 66 1.0 
62 63 1.5 71 1.0 
63 64 1.5 67 1.0 
64 68 1.0 
65 
66 
67 
68 69 1.0 
69 
70 73 1.0 74 1.0 75 1.0 
71 72 2.0 76 1.0 
72 
73 
74 
75 
76 77 1.0 
77 78 1.0 79 1.0 80 1.0 
78 
79 
80 81 1.0 82 1.0 83 1.0 
81 
82 
83 84 1.0 85 1.0 86 1.0 
84 
85 
86 87 1.0 88 1.0 103 1.0 
87 
88 89 2.0 102 1.0 
89 
90 92 1.0 93 1.0 94 1.0 102 1.0 
91 95 1.0 96 1.0 97 1.0 102 1.0 
92 95 1.0 98 1.0 99 1.0 
93 
94 
95 100 1.0 101 1.0 
96 
97 
98 
99 
100 
101 
102 
103 104 1.0 
104 105 1.0 106 1.0 107 1.0 
105 
106 
107 108 1.0 109 1.0 110 1.0 
108 
109 
110 111 1.0 112 1.0 113 1.0 
111 
112 
113 114 1.0 115 1.0 132 1.0 
114 
115 116 2.0 129 1.0 
116 
117 119 1.0 120 1.0 121 1.0 129 1.0 
118 122 1.0 123 1.0 124 1.0 129 1.0 
119 122 1.0 125 1.0 126 1.0 
120 
121 
122 127 1.0 128 1.0 
123 
124 
125 
126 
127 
128 
129 
130 131 2.0 132 1.0 143 1.0 
131 
132 133 1.0 
133 
134 135 1.5 139 1.5 140 1.0 
135 136 1.5 145 1.0 
136 137 1.5 141 1.0 
137 138 1.5 146 1.0 
138 139 1.5 142 1.0 
139 143 1.0 
140 
141 
142 
143 144 1.0 
144 
145 148 1.0 149 1.0 150 1.0 
146 147 2.0 
147 
148 
149 
150 


